Ce2O3-type layer Ce4O6 on Rh(111) 3x3, start = round-1 30a relaxed, z re-zeroed
1.0
  8.1103017069  0.0000000000  0.0000000000
  4.0551508534  7.0237273105  0.0000000000
  0.0000000000  0.0000000000  30.0000000000
Rh  Ce  O
36  4  6
Selective dynamics
Cartesian
  0.00000000  0.00000000  0.00000000  F F F
  9.46201866  2.34124244  0.00000000  F F F
  10.81373561  4.68248487  0.00000000  F F F
  2.70343390  0.00000000  0.00000000  F F F
  4.05515085  2.34124244  0.00000000  F F F
  5.40686780  4.68248487  0.00000000  F F F
  5.40686780  0.00000000  0.00000000  F F F
  6.75858476  2.34124244  0.00000000  F F F
  8.11030171  4.68248487  0.00000000  F F F
  1.35171695  0.78041415  2.20734454  F F F
  2.70343390  3.12165658  2.20734454  F F F
  4.05515085  5.46289902  2.20734454  F F F
  4.05515085  0.78041415  2.20734454  F F F
  5.40686780  3.12165658  2.20734454  F F F
  6.75858476  5.46289902  2.20734454  F F F
  6.75858476  0.78041415  2.20734454  F F F
  8.11030171  3.12165658  2.20734454  F F F
  9.46201866  5.46289902  2.20734454  F F F
  2.68643103  1.55096091  4.44849954  T T T
  4.05560887  3.89718793  4.35074594  T T T
  5.42151264  6.25523829  4.39965337  T T T
  5.40284641  1.56369884  4.35078561  T T T
  6.76047724  3.90316141  4.38131885  T T T
  8.09811188  6.25567971  4.36803250  T T T
  8.12795829  1.56756783  4.39963223  T T T
  9.46670989  3.88533700  4.36793864  T T T
  10.81922143  6.24644227  4.32867459  T T T
  4.07975933  2.35546263  6.56420775  T T T
  5.38099160  4.65964732  6.57062888  T T T
  6.78578538  6.99089800  6.65717746  T T T
  6.72587644  2.33013932  6.57064973  T T T
  8.14237067  4.70086479  6.51026788  T T T
  5.44974664  0.01036977  6.51684837  T T T
  9.44722263  2.38116392  6.65706998  T T T
  2.73394234  4.71442536  6.51688895  T T T
  12.13579542  7.00661610  6.54803251  T T T
  1.06548893  0.61514270  9.56501853  T T T
  2.90072636  4.00280895  9.68710693  T T T
  4.91683689  0.51058843  9.68722267  T T T
  7.12053980  4.11109662  9.56076726  T T T
  3.04607481  1.75880777  10.36229081  T T T
  4.94461062  5.13119807  10.01869239  T T T
  7.04490945  6.48934621  8.58314164  T T T
  6.91574136  1.71684685  10.01822152  T T T
  9.14247082  2.85648850  8.58295209  T T T
  9.12240734  5.26658082  10.31352668  T T T
