C4a seg01 ionic step 25 (lowest E, Fmax_
   1.00000000000000     
    10.8137360000000005    0.0000000000000000    0.0000000000000000
     5.4068680000000002    9.3649699999999996    0.0000000000000000
     0.0000000000000000    0.0000000000000000   25.9239999999999995
   Rh   Ce   O 
    64     2     4
Selective dynamics
Direct
  0.0000000000000000  0.0000000000000000  0.0000000000000000   F   F   F
  0.0000000000000000  0.2500000000000000  0.0000000000000000   F   F   F
  0.0000000000000000  0.5000000000000000  0.0000000000000000   F   F   F
  0.0000000000000000  0.7500000000000000  0.0000000000000000   F   F   F
  0.2500000000000000  0.0000000000000000  0.0000000000000000   F   F   F
  0.2500000000000000  0.2500000000000000  0.0000000000000000   F   F   F
  0.2500000000000000  0.5000000000000000  0.0000000000000000   F   F   F
  0.2500000000000000  0.7500000000000000  0.0000000000000000   F   F   F
  0.5000000000000000  0.0000000000000000  0.0000000000000000   F   F   F
  0.5000000000000000  0.2500000000000000  0.0000000000000000   F   F   F
  0.5000000000000000  0.5000000000000000  0.0000000000000000   F   F   F
  0.5000000000000000  0.7500000000000000  0.0000000000000000   F   F   F
  0.7500000000000000  0.0000000000000000  0.0000000000000000   F   F   F
  0.7500000000000000  0.2500000000000000  0.0000000000000000   F   F   F
  0.7500000000000000  0.5000000000000000  0.0000000000000000   F   F   F
  0.7500000000000000  0.7500000000000000  0.0000000000000000   F   F   F
  0.0833333300000021  0.0833333300000021  0.0851467600000007   F   F   F
  0.0833333300000021  0.3333333300000021  0.0851467600000007   F   F   F
  0.0833333300000021  0.5833333300000021  0.0851467600000007   F   F   F
  0.0833333300000021  0.8333333300000021  0.0851467600000007   F   F   F
  0.3333333300000021  0.0833333300000021  0.0851467600000007   F   F   F
  0.3333333300000021  0.3333333300000021  0.0851467600000007   F   F   F
  0.3333333300000021  0.5833333300000021  0.0851467600000007   F   F   F
  0.3333333300000021  0.8333333300000021  0.0851467600000007   F   F   F
  0.5833333300000021  0.0833333300000021  0.0851467600000007   F   F   F
  0.5833333300000021  0.3333333300000021  0.0851467600000007   F   F   F
  0.5833333300000021  0.5833333300000021  0.0851467600000007   F   F   F
  0.5833333300000021  0.8333333300000021  0.0851467600000007   F   F   F
  0.8333333300000021  0.0833333300000021  0.0851467600000007   F   F   F
  0.8333333300000021  0.3333333300000021  0.0851467600000007   F   F   F
  0.8333333300000021  0.5833333300000021  0.0851467600000007   F   F   F
  0.8333333300000021  0.8333333300000021  0.0851467600000007   F   F   F
  0.1660358654304706  0.1671096409404600  0.1680640450142618   T   T   T
  0.1656775421022958  0.4175311143245802  0.1680808715808541   T   T   T
  0.1676248816304109  0.6670597606528640  0.1699036898049845   T   T   T
  0.1671980286506949  0.9151804996971749  0.1692599668940738   T   T   T
  0.4185566661406359  0.1643006907203862  0.1697909287434748   T   T   T
  0.4164570498405497  0.4178686778588288  0.1687769786421402   T   T   T
  0.4170101039598511  0.6664121482070443  0.1704565005266913   T   T   T
  0.4161453757616212  0.9172317632293784  0.1670249829471310   T   T   T
  0.6674235976565036  0.1673558661326480  0.1695233795887988   T   T   T
  0.6666538448272863  0.4169747024170612  0.1672352193281124   T   T   T
  0.6675662274187583  0.6655048079509061  0.1680586963274430   T   T   T
  0.6670933020718671  0.9165113086383312  0.1685153542268570   T   T   T
  0.9153097195577373  0.1670909475201401  0.1692248727118985   T   T   T
  0.9152075201444513  0.4181484137580977  0.1691777640958247   T   T   T
  0.9151158998826958  0.6676775061691302  0.1699114581767412   T   T   T
  0.9170938491583145  0.9163536701864569  0.1684418121197965   T   T   T
  0.2499539240442748  0.2503291747824755  0.2525715444627494   T   T   T
  0.2510032181321803  0.4959183428709455  0.2529076540613374   T   T   T
  0.2500982954923506  0.7536170297585294  0.2560795856803880   T   T   T
  0.2446601789861719  0.0054341608139217  0.2515788972185731   T   T   T
  0.4985101232579030  0.2463012375554841  0.2525921104889544   T   T   T
  0.5013042816996903  0.4959280760659335  0.2544413931678981   T   T   T
  0.5002583248472831  0.7545801830530608  0.2511888926110611   T   T   T
  0.4994705305003817 -0.0000026611593507  0.2556512895460468   T   T   T
  0.7494180153106830  0.2509006325693846  0.2558369965430621   T   T   T
  0.7536819886091943  0.4949720120905708  0.2546436372120228   T   T   T
  0.7509646477984475  0.7495750800080672  0.2563834778386367   T   T   T
  0.7533068910362375  0.0021482086433910  0.2525212177155231   T   T   T
  0.0038503459909736  0.2492641847983866  0.2519164162058606   T   T   T
 -0.0003163433429928  0.5010685801488530  0.2532703616025153   T   T   T
  0.9967233789210268  0.7514023010577237  0.2532244318242290   T   T   T
  0.9983364660811233  0.0007566800734320  0.2522418002086316   T   T   T
  0.2150737225151048  0.6017841593329840  0.3583329196331850   T   T   T
  0.5118157110456171  0.6400347703919782  0.3580583885209689   T   T   T
  0.4117857176911435  0.5332716875304407  0.3981108708043489   T   T   T
  0.2743191049142699  0.7624546766041679  0.3346648819125695   T   T   T
  0.5802317210608062  0.8284558486969450  0.3073006299660569   T   T   T
  0.6625798705473720  0.4283391112107852  0.3093747069508684   T   T   T
 
  0.00000000E+00  0.00000000E+00  0.00000000E+00
  0.00000000E+00  0.00000000E+00  0.00000000E+00
  0.00000000E+00  0.00000000E+00  0.00000000E+00
  0.00000000E+00  0.00000000E+00  0.00000000E+00
  0.00000000E+00  0.00000000E+00  0.00000000E+00
  0.00000000E+00  0.00000000E+00  0.00000000E+00
  0.00000000E+00  0.00000000E+00  0.00000000E+00
  0.00000000E+00  0.00000000E+00  0.00000000E+00
  0.00000000E+00  0.00000000E+00  0.00000000E+00
  0.00000000E+00  0.00000000E+00  0.00000000E+00
  0.00000000E+00  0.00000000E+00  0.00000000E+00
  0.00000000E+00  0.00000000E+00  0.00000000E+00
  0.00000000E+00  0.00000000E+00  0.00000000E+00
  0.00000000E+00  0.00000000E+00  0.00000000E+00
  0.00000000E+00  0.00000000E+00  0.00000000E+00
  0.00000000E+00  0.00000000E+00  0.00000000E+00
  0.00000000E+00  0.00000000E+00  0.00000000E+00
  0.00000000E+00  0.00000000E+00  0.00000000E+00
  0.00000000E+00  0.00000000E+00  0.00000000E+00
  0.00000000E+00  0.00000000E+00  0.00000000E+00
  0.00000000E+00  0.00000000E+00  0.00000000E+00
  0.00000000E+00  0.00000000E+00  0.00000000E+00
  0.00000000E+00  0.00000000E+00  0.00000000E+00
  0.00000000E+00  0.00000000E+00  0.00000000E+00
  0.00000000E+00  0.00000000E+00  0.00000000E+00
  0.00000000E+00  0.00000000E+00  0.00000000E+00
  0.00000000E+00  0.00000000E+00  0.00000000E+00
  0.00000000E+00  0.00000000E+00  0.00000000E+00
  0.00000000E+00  0.00000000E+00  0.00000000E+00
  0.00000000E+00  0.00000000E+00  0.00000000E+00
  0.00000000E+00  0.00000000E+00  0.00000000E+00
  0.00000000E+00  0.00000000E+00  0.00000000E+00
  0.00000000E+00  0.00000000E+00  0.00000000E+00
  0.00000000E+00  0.00000000E+00  0.00000000E+00
  0.00000000E+00  0.00000000E+00  0.00000000E+00
  0.00000000E+00  0.00000000E+00  0.00000000E+00
  0.00000000E+00  0.00000000E+00  0.00000000E+00
  0.00000000E+00  0.00000000E+00  0.00000000E+00
  0.00000000E+00  0.00000000E+00  0.00000000E+00
  0.00000000E+00  0.00000000E+00  0.00000000E+00
  0.00000000E+00  0.00000000E+00  0.00000000E+00
  0.00000000E+00  0.00000000E+00  0.00000000E+00
  0.00000000E+00  0.00000000E+00  0.00000000E+00
  0.00000000E+00  0.00000000E+00  0.00000000E+00
  0.00000000E+00  0.00000000E+00  0.00000000E+00
  0.00000000E+00  0.00000000E+00  0.00000000E+00
  0.00000000E+00  0.00000000E+00  0.00000000E+00
  0.00000000E+00  0.00000000E+00  0.00000000E+00
  0.00000000E+00  0.00000000E+00  0.00000000E+00
  0.00000000E+00  0.00000000E+00  0.00000000E+00
  0.00000000E+00  0.00000000E+00  0.00000000E+00
  0.00000000E+00  0.00000000E+00  0.00000000E+00
  0.00000000E+00  0.00000000E+00  0.00000000E+00
  0.00000000E+00  0.00000000E+00  0.00000000E+00
  0.00000000E+00  0.00000000E+00  0.00000000E+00
  0.00000000E+00  0.00000000E+00  0.00000000E+00
  0.00000000E+00  0.00000000E+00  0.00000000E+00
  0.00000000E+00  0.00000000E+00  0.00000000E+00
  0.00000000E+00  0.00000000E+00  0.00000000E+00
  0.00000000E+00  0.00000000E+00  0.00000000E+00
  0.00000000E+00  0.00000000E+00  0.00000000E+00
  0.00000000E+00  0.00000000E+00  0.00000000E+00
  0.00000000E+00  0.00000000E+00  0.00000000E+00
  0.00000000E+00  0.00000000E+00  0.00000000E+00
  0.00000000E+00  0.00000000E+00  0.00000000E+00
  0.00000000E+00  0.00000000E+00  0.00000000E+00
  0.00000000E+00  0.00000000E+00  0.00000000E+00
  0.00000000E+00  0.00000000E+00  0.00000000E+00
  0.00000000E+00  0.00000000E+00  0.00000000E+00
  0.00000000E+00  0.00000000E+00  0.00000000E+00
