SYSTEM = 2x2 CeO2(111) O-Ce-O trilayer on Rh(111) 3x3, Ce0 over top
ISTART = 1
ICHARG = 1
PREC = Accurate
ENCUT = 400
EDIFF = 1E-4
NELM = 300
NELMIN = 4
ISPIN = 1
ISYM = 0
ISMEAR = 1
SIGMA = 0.10
ALGO = All
LREAL = .FALSE.
LASPH = .TRUE.
ADDGRID = .TRUE.
LORBIT = 11
IBRION = 1
POTIM = 0.30
NSW = 200
ISIF = 2
EDIFFG = -0.02
IDIPOL = 3
LDIPOL = .FALSE.
KPAR = 4
NCORE = 3
LWAVE = .TRUE.
LCHARG = .TRUE.
LDAU = .TRUE.
LDAUTYPE = 2
LDAUL = -1 3 -1
LDAUU = 0.0 5.0 0.0
LDAUJ = 0.0 0.0 0.0
LMAXMIX = 6
AMIN = 0.01
MAXMIX = 40
