2x2 Ce2O3-type layer Ce4O6 on Rh(111) 3x
   1.00000000000000     
     8.1103017068999996    0.0000000000000000    0.0000000000000000
     4.0551508533999998    7.0237273105000000    0.0000000000000000
     0.0000000000000000    0.0000000000000000   30.0000000000000000
   Rh   Ce   O 
    36     4     6
Selective dynamics
Direct
  0.0000000000000000  0.0000000000000000  0.0666666666666700   F   F   F
  0.9999999996348308  0.3333333337841893  0.0666666666666700   F   F   F
  0.9999999999815401  0.6666666661446286  0.0666666666666700   F   F   F
  0.3333333330497439  0.0000000000000000  0.0666666666666700   F   F   F
  0.3333333326845747  0.3333333337841893  0.0666666666666700   F   F   F
  0.3333333330312840  0.6666666661446286  0.0666666666666700   F   F   F
  0.6666666660994878  0.0000000000000000  0.0666666666666700   F   F   F
  0.6666666669673234  0.3333333337841893  0.0666666666666700   F   F   F
  0.6666666673140256  0.6666666661446286  0.0666666666666700   F   F   F
  0.1111111106575677  0.1111111117359798  0.1402448179999993   F   F   F
  0.1111111110042771  0.4444444440964190  0.1402448179999993   F   F   F
  0.1111111106391078  0.7777777778806012  0.1402448179999993   F   F   F
  0.4444444437073116  0.1111111117359798  0.1402448179999993   F   F   F
  0.4444444440540209  0.4444444440964190  0.1402448179999993   F   F   F
  0.4444444449218494  0.7777777778806012  0.1402448179999993   F   F   F
  0.7777777779900532  0.1111111117359798  0.1402448179999993   F   F   F
  0.7777777783367625  0.4444444440964190  0.1402448179999993   F   F   F
  0.7777777779715933  0.7777777778806012  0.1402448179999993   F   F   F
  0.2221491749740130  0.2221866130692702  0.2159172606448889   T   T   T
  0.2238039621491824  0.5560726591516743  0.2114120282699369   T   T   T
  0.2250264004277629  0.8900917423233560  0.2158214912897042   T   T   T
  0.5560549634005694  0.2238210915904634  0.2114064311729391   T   T   T
  0.5564389429096777  0.5564554100841078  0.2122493808812821   T   T   T
  0.5541375929568394  0.8909160079204026  0.2121091863246201   T   T   T
  0.8900943431383864  0.2250223276505705  0.2158096900816155   T   T   T
  0.8908957576891274  0.5541685081992985  0.2121122794500325   T   T   T
  0.8910777668019604  0.8910873770356752  0.2103949656011731   T   T   T
  0.3357833757176658  0.3358028492212947  0.2850959511284940   T   T   T
  0.3345335296070554  0.6689862164361641  0.2873351462663170   T   T   T
  0.3421604729906005  0.0004474340968731  0.2913890419024948   T   T   T
  0.6689649854636063  0.3345394575034172  0.2873146710501503   T   T   T
  0.6706880164261259  0.6707822348409468  0.2835857007491892   T   T   T
  0.6759459478782168  0.9962613883167646  0.2825659431109072   T   T   T
  0.0003321254879294  0.3422352088533202  0.2913296859958063   T   T   T
  0.9962433894822195  0.6760024957593447  0.2825724655827090   T   T   T
  0.9992778476768189  0.9993127853381656  0.2873294187950208   T   T   T
  0.0808617299432312  0.0804685509736589  0.3831816115060043   T   T   T
  0.0917599249243084  0.6130252561550955  0.3762578242291657   T   T   T
  0.6133153396673423  0.0915689431399408  0.3762498480015082   T   T   T
  0.6024611177848204  0.6021835707440661  0.3825021449010349   T   T   T
  0.4384497386847798  0.4384273348370075  0.3364401332214267   T   T   T
  0.2714096298481757  0.7464991654054728  0.4041899201104192   T   T   T
  0.3875167181920706  0.0000218415669772  0.3607811310089823   T   T   T
  0.7466755423133931  0.2712819013302855  0.4041765614532430   T   T   T
 -0.0007041995985327  0.3876982166076282  0.3606300991807850   T   T   T
  0.7836339436725290  0.7833654842231272  0.4007964493219210   T   T   T
 
  0.00000000E+00  0.00000000E+00  0.00000000E+00
  0.00000000E+00  0.00000000E+00  0.00000000E+00
  0.00000000E+00  0.00000000E+00  0.00000000E+00
  0.00000000E+00  0.00000000E+00  0.00000000E+00
  0.00000000E+00  0.00000000E+00  0.00000000E+00
  0.00000000E+00  0.00000000E+00  0.00000000E+00
  0.00000000E+00  0.00000000E+00  0.00000000E+00
  0.00000000E+00  0.00000000E+00  0.00000000E+00
  0.00000000E+00  0.00000000E+00  0.00000000E+00
  0.00000000E+00  0.00000000E+00  0.00000000E+00
  0.00000000E+00  0.00000000E+00  0.00000000E+00
  0.00000000E+00  0.00000000E+00  0.00000000E+00
  0.00000000E+00  0.00000000E+00  0.00000000E+00
  0.00000000E+00  0.00000000E+00  0.00000000E+00
  0.00000000E+00  0.00000000E+00  0.00000000E+00
  0.00000000E+00  0.00000000E+00  0.00000000E+00
  0.00000000E+00  0.00000000E+00  0.00000000E+00
  0.00000000E+00  0.00000000E+00  0.00000000E+00
  0.00000000E+00  0.00000000E+00  0.00000000E+00
  0.00000000E+00  0.00000000E+00  0.00000000E+00
  0.00000000E+00  0.00000000E+00  0.00000000E+00
  0.00000000E+00  0.00000000E+00  0.00000000E+00
  0.00000000E+00  0.00000000E+00  0.00000000E+00
  0.00000000E+00  0.00000000E+00  0.00000000E+00
  0.00000000E+00  0.00000000E+00  0.00000000E+00
  0.00000000E+00  0.00000000E+00  0.00000000E+00
  0.00000000E+00  0.00000000E+00  0.00000000E+00
  0.00000000E+00  0.00000000E+00  0.00000000E+00
  0.00000000E+00  0.00000000E+00  0.00000000E+00
  0.00000000E+00  0.00000000E+00  0.00000000E+00
  0.00000000E+00  0.00000000E+00  0.00000000E+00
  0.00000000E+00  0.00000000E+00  0.00000000E+00
  0.00000000E+00  0.00000000E+00  0.00000000E+00
  0.00000000E+00  0.00000000E+00  0.00000000E+00
  0.00000000E+00  0.00000000E+00  0.00000000E+00
  0.00000000E+00  0.00000000E+00  0.00000000E+00
  0.00000000E+00  0.00000000E+00  0.00000000E+00
  0.00000000E+00  0.00000000E+00  0.00000000E+00
  0.00000000E+00  0.00000000E+00  0.00000000E+00
  0.00000000E+00  0.00000000E+00  0.00000000E+00
  0.00000000E+00  0.00000000E+00  0.00000000E+00
  0.00000000E+00  0.00000000E+00  0.00000000E+00
  0.00000000E+00  0.00000000E+00  0.00000000E+00
  0.00000000E+00  0.00000000E+00  0.00000000E+00
  0.00000000E+00  0.00000000E+00  0.00000000E+00
  0.00000000E+00  0.00000000E+00  0.00000000E+00
