Ce2O3 unit in 15 A box (cluster referenc
   1.00000000000000     
    15.0000000000000000    0.0000000000000000    0.0000000000000000
     0.0000000000000000   15.0000000000000000    0.0000000000000000
     0.0000000000000000    0.0000000000000000   15.0000000000000000
   Ce   O 
     2     3
Direct
  0.3786983519871385  0.4635725424227526  0.5362863643668689
  0.5766129545168605  0.5544793113548648  0.4860269562186859
  0.4912669438270638  0.4927784215618018  0.6045296402291314
  0.4265044360317248  0.5421720658092944  0.4375718997934593
  0.6269173136372057  0.4469976588512866  0.4355851393918402
 
  0.00000000E+00  0.00000000E+00  0.00000000E+00
  0.00000000E+00  0.00000000E+00  0.00000000E+00
  0.00000000E+00  0.00000000E+00  0.00000000E+00
  0.00000000E+00  0.00000000E+00  0.00000000E+00
  0.00000000E+00  0.00000000E+00  0.00000000E+00
