Ce2O3 unit on Rh(111) 3x3, initial B: Ce
   1.00000000000000     
     8.1103017068999996    0.0000000000000000    0.0000000000000000
     4.0551508533999998    7.0237273105000000    0.0000000000000000
     0.0000000000000000    0.0000000000000000   30.0000000000000000
   Rh   Ce   O 
    36     2     3
Selective dynamics
Direct
  0.0000000000000000  0.0000000000000000  0.0666666666666700   F   F   F
  0.9999999996348308  0.3333333337841893  0.0666666666666700   F   F   F
  0.9999999999815401  0.6666666661446286  0.0666666666666700   F   F   F
  0.3333333330497439  0.0000000000000000  0.0666666666666700   F   F   F
  0.3333333326845747  0.3333333337841893  0.0666666666666700   F   F   F
  0.3333333330312840  0.6666666661446286  0.0666666666666700   F   F   F
  0.6666666660994878  0.0000000000000000  0.0666666666666700   F   F   F
  0.6666666669673234  0.3333333337841893  0.0666666666666700   F   F   F
  0.6666666673140256  0.6666666661446286  0.0666666666666700   F   F   F
  0.1111111106575677  0.1111111117359798  0.1402448179999993   F   F   F
  0.1111111110042771  0.4444444440964190  0.1402448179999993   F   F   F
  0.1111111106391078  0.7777777778806012  0.1402448179999993   F   F   F
  0.4444444437073116  0.1111111117359798  0.1402448179999993   F   F   F
  0.4444444440540209  0.4444444440964190  0.1402448179999993   F   F   F
  0.4444444449218494  0.7777777778806012  0.1402448179999993   F   F   F
  0.7777777779900532  0.1111111117359798  0.1402448179999993   F   F   F
  0.7777777783367625  0.4444444440964190  0.1402448179999993   F   F   F
  0.7777777779715933  0.7777777778806012  0.1402448179999993   F   F   F
  0.2234485657095733  0.2212907651634908  0.2113991381002757   T   T   T
  0.2221825660328395  0.5543167519934695  0.2116238572144475   T   T   T
  0.2221432649150286  0.8895817342741559  0.2115920550607252   T   T   T
  0.5565557577763844  0.2226741992444413  0.2130454081655984   T   T   T
  0.5572959745643007  0.5543410453731854  0.2138763972426918   T   T   T
  0.5566929083446982  0.8864607695234363  0.2131726005417746   T   T   T
  0.8865738522735772  0.2232218677013994  0.2130900494802687   T   T   T
  0.8867238831152771  0.5560926760130237  0.2130962610093214   T   T   T
  0.8885431574493422  0.8887362944996259  0.2123033299070268   T   T   T
  0.3304033892443016  0.3334487461570724  0.2848510192619695   T   T   T
  0.3258874687598666  0.6698129796350829  0.2843491964685579   T   T   T
  0.3304733623890378  0.0013220814827392  0.2849051497460681   T   T   T
  0.6668552097054007  0.3279808535485921  0.2877582117462459   T   T   T
  0.6673988010029344  0.6697447287739621  0.2881086614121113   T   T   T
  0.6669866603821609  0.9989831008068232  0.2844713613329286   T   T   T
  0.0082361852068386  0.3285680903800044  0.2843673036434360   T   T   T
  0.0037264793102427  0.6655288673903159  0.2852942115691159   T   T   T
  0.0038919589754057  0.9961071665467096  0.2853367669627653   T   T   T
  0.4419812242141327  0.6105450962283278  0.3809928222638462   T   T   T
  0.8937599239309175  0.3797094251895255  0.3807191287518794   T   T   T
  0.6697169869767856  0.6720867472144039  0.3553029061968775   T   T   T
  0.6647386130894524  0.3194566175374939  0.3548819757721174   T   T   T
  0.6685553860444967  0.4935970753731725  0.4310358604522495   T   T   T
 
  0.00000000E+00  0.00000000E+00  0.00000000E+00
  0.00000000E+00  0.00000000E+00  0.00000000E+00
  0.00000000E+00  0.00000000E+00  0.00000000E+00
  0.00000000E+00  0.00000000E+00  0.00000000E+00
  0.00000000E+00  0.00000000E+00  0.00000000E+00
  0.00000000E+00  0.00000000E+00  0.00000000E+00
  0.00000000E+00  0.00000000E+00  0.00000000E+00
  0.00000000E+00  0.00000000E+00  0.00000000E+00
  0.00000000E+00  0.00000000E+00  0.00000000E+00
  0.00000000E+00  0.00000000E+00  0.00000000E+00
  0.00000000E+00  0.00000000E+00  0.00000000E+00
  0.00000000E+00  0.00000000E+00  0.00000000E+00
  0.00000000E+00  0.00000000E+00  0.00000000E+00
  0.00000000E+00  0.00000000E+00  0.00000000E+00
  0.00000000E+00  0.00000000E+00  0.00000000E+00
  0.00000000E+00  0.00000000E+00  0.00000000E+00
  0.00000000E+00  0.00000000E+00  0.00000000E+00
  0.00000000E+00  0.00000000E+00  0.00000000E+00
  0.00000000E+00  0.00000000E+00  0.00000000E+00
  0.00000000E+00  0.00000000E+00  0.00000000E+00
  0.00000000E+00  0.00000000E+00  0.00000000E+00
  0.00000000E+00  0.00000000E+00  0.00000000E+00
  0.00000000E+00  0.00000000E+00  0.00000000E+00
  0.00000000E+00  0.00000000E+00  0.00000000E+00
  0.00000000E+00  0.00000000E+00  0.00000000E+00
  0.00000000E+00  0.00000000E+00  0.00000000E+00
  0.00000000E+00  0.00000000E+00  0.00000000E+00
  0.00000000E+00  0.00000000E+00  0.00000000E+00
  0.00000000E+00  0.00000000E+00  0.00000000E+00
  0.00000000E+00  0.00000000E+00  0.00000000E+00
  0.00000000E+00  0.00000000E+00  0.00000000E+00
  0.00000000E+00  0.00000000E+00  0.00000000E+00
  0.00000000E+00  0.00000000E+00  0.00000000E+00
  0.00000000E+00  0.00000000E+00  0.00000000E+00
  0.00000000E+00  0.00000000E+00  0.00000000E+00
  0.00000000E+00  0.00000000E+00  0.00000000E+00
  0.00000000E+00  0.00000000E+00  0.00000000E+00
  0.00000000E+00  0.00000000E+00  0.00000000E+00
  0.00000000E+00  0.00000000E+00  0.00000000E+00
  0.00000000E+00  0.00000000E+00  0.00000000E+00
  0.00000000E+00  0.00000000E+00  0.00000000E+00
