Ce2O3 unit on Rh(111) 3x3, initial A: O 
   1.00000000000000     
     8.1103017068999996    0.0000000000000000    0.0000000000000000
     4.0551508533999998    7.0237273105000000    0.0000000000000000
     0.0000000000000000    0.0000000000000000   30.0000000000000000
   Rh   Ce   O 
    36     2     3
Selective dynamics
Direct
  0.0000000000000000  0.0000000000000000  0.0666666666666700   F   F   F
  0.9999999996348309  0.3333333337841891  0.0666666666666700   F   F   F
  0.9999999999815402  0.6666666661446283  0.0666666666666700   F   F   F
  0.3333333330497439  0.0000000000000000  0.0666666666666700   F   F   F
  0.3333333326845748  0.3333333337841891  0.0666666666666700   F   F   F
  0.3333333330312842  0.6666666661446283  0.0666666666666700   F   F   F
  0.6666666660994878  0.0000000000000000  0.0666666666666700   F   F   F
  0.6666666669673234  0.3333333337841891  0.0666666666666700   F   F   F
  0.6666666673140256  0.6666666661446283  0.0666666666666700   F   F   F
  0.1111111106575678  0.1111111117359797  0.1402448179999993   F   F   F
  0.1111111110042771  0.4444444440964190  0.1402448179999993   F   F   F
  0.1111111106391183  0.7777777778806008  0.1402448179999993   F   F   F
  0.4444444437073116  0.1111111117359797  0.1402448179999993   F   F   F
  0.4444444440540210  0.4444444440964190  0.1402448179999993   F   F   F
  0.4444444449218497  0.7777777778806008  0.1402448179999993   F   F   F
  0.7777777779900532  0.1111111117359797  0.1402448179999993   F   F   F
  0.7777777783367626  0.4444444440964190  0.1402448179999993   F   F   F
  0.7777777779715935  0.7777777778806008  0.1402448179999993   F   F   F
  0.2198639170805430  0.2232423062579208  0.2131323957985179   T   T   T
  0.2222580063852194  0.5556387727180326  0.2116736199568936   T   T   T
  0.2217221774557369  0.8896356450438949  0.2123887172752080   T   T   T
  0.5566286138317793  0.2220091317832740  0.2108849389215113   T   T   T
  0.5533761301423853  0.5565675614184080  0.2133464917029908   T   T   T
  0.5543159503825585  0.8911812653840829  0.2115441175467488   T   T   T
  0.8916750052397001  0.2226253338870120  0.2155401707632435   T   T   T
  0.8910630735276591  0.5529751923989249  0.2142454869540058   T   T   T
  0.8892703165598350  0.8902338114032670  0.2117993392699696   T   T   T
  0.3402125371513750  0.3262348044825905  0.2836984702706906   T   T   T
  0.3350746475356117  0.6658322536575343  0.2884169443320820   T   T   T
  0.3384807205918922  0.9999528456317623  0.2849629729376402   T   T   T
  0.6657296429489720  0.3293767167259959  0.2851196256670920   T   T   T
  0.6637968404119932  0.6739851475224643  0.2843998140466175   T   T   T
  0.6608895543177936  1.0038978304508672  0.2844093353652131   T   T   T
 -0.0009876046320286  0.3360076792208805  0.2928776586650331   T   T   T
 -0.0029105470350140  0.6705348984907273  0.2851976149175014   T   T   T
  1.0009933614129534 -0.0001932013265981  0.2874767946285683   T   T   T
  0.2255208062987148  0.4647132234408644  0.3721257479245034   T   T   T
  0.6832344916635905  0.4899490723100862  0.3718173410123866   T   T   T
  0.4851733183646911  0.4260038498223755  0.4055447125923886   T   T   T
  0.1115255071833437  0.7674730027487702  0.3340654628447308   T   T   T
  0.0051187777113298  0.3590587104938766  0.3643016416596894   T   T   T
 
             NaN             NaN             NaN
             NaN             NaN             NaN
             NaN             NaN             NaN
             NaN             NaN             NaN
             NaN             NaN             NaN
             NaN             NaN             NaN
             NaN             NaN             NaN
             NaN             NaN             NaN
             NaN             NaN             NaN
             NaN             NaN             NaN
             NaN             NaN             NaN
             NaN             NaN             NaN
             NaN             NaN             NaN
             NaN             NaN             NaN
             NaN             NaN             NaN
             NaN             NaN             NaN
             NaN             NaN             NaN
             NaN             NaN             NaN
             NaN             NaN             NaN
             NaN             NaN             NaN
             NaN             NaN             NaN
             NaN             NaN             NaN
             NaN             NaN             NaN
             NaN             NaN             NaN
             NaN             NaN             NaN
             NaN             NaN             NaN
             NaN             NaN             NaN
             NaN             NaN             NaN
             NaN             NaN             NaN
             NaN             NaN             NaN
             NaN             NaN             NaN
             NaN             NaN             NaN
             NaN             NaN             NaN
             NaN             NaN             NaN
             NaN             NaN             NaN
             NaN             NaN             NaN
             NaN             NaN             NaN
             NaN             NaN             NaN
             NaN             NaN             NaN
             NaN             NaN             NaN
             NaN             NaN             NaN
