2x2 Ce2O3-type layer Ce4O6 on Rh(111) 3x
   1.00000000000000     
     8.1103017068999996    0.0000000000000000    0.0000000000000000
     4.0551508533999998    7.0237273105000000    0.0000000000000000
     0.0000000000000000    0.0000000000000000   30.0000000000000000
   Rh   Ce   O 
    36     4     6
Selective dynamics
Direct
  0.0000000000000000  0.0000000000000000  0.0666666666666700   F   F   F
  0.9999999996348309  0.3333333337841891  0.0666666666666700   F   F   F
  0.9999999999815402  0.6666666661446283  0.0666666666666700   F   F   F
  0.3333333330497439  0.0000000000000000  0.0666666666666700   F   F   F
  0.3333333326845748  0.3333333337841891  0.0666666666666700   F   F   F
  0.3333333330312842  0.6666666661446283  0.0666666666666700   F   F   F
  0.6666666660994878  0.0000000000000000  0.0666666666666700   F   F   F
  0.6666666669673234  0.3333333337841891  0.0666666666666700   F   F   F
  0.6666666673140256  0.6666666661446283  0.0666666666666700   F   F   F
  0.1111111106575678  0.1111111117359797  0.1402448179999993   F   F   F
  0.1111111110042771  0.4444444440964190  0.1402448179999993   F   F   F
  0.1111111106391091  0.7777777778806008  0.1402448179999993   F   F   F
  0.4444444437073116  0.1111111117359797  0.1402448179999993   F   F   F
  0.4444444440540210  0.4444444440964190  0.1402448179999993   F   F   F
  0.4444444449218497  0.7777777778806008  0.1402448179999993   F   F   F
  0.7777777779900532  0.1111111117359797  0.1402448179999993   F   F   F
  0.7777777783367626  0.4444444440964190  0.1402448179999993   F   F   F
  0.7777777779715935  0.7777777778806008  0.1402448179999993   F   F   F
  0.2208282012955200  0.2208173578313167  0.2149499845856539   T   T   T
  0.2226262879314927  0.5548603699082408  0.2116915312550060   T   T   T
  0.2231790132871730  0.8905867231797270  0.2133217788525104   T   T   T
  0.5548553716670088  0.2226309149435839  0.2116928536563626   T   T   T
  0.5557112560477820  0.5557108416130117  0.2127106284687672   T   T   T
  0.5531722089283900  0.8906495705506783  0.2122677498697152   T   T   T
  0.8905861760271465  0.2231817615934963  0.2133210742548181   T   T   T
  0.8906585465174982  0.5531730987668512  0.2122646213195758   T   T   T
  0.8893425373876082  0.8893343942959572  0.2109558197642046   T   T   T
  0.3353552601905991  0.3353579275878042  0.2854735915239371   T   T   T
  0.3317685414536889  0.6634151801628621  0.2856876292502051   T   T   T
  0.3390241978621863  0.9953259423640621  0.2885725819323578   T   T   T
  0.6634241330000875  0.3317525316099513  0.2856883243847693   T   T   T
  0.6693123529265396  0.6692834987033605  0.2836755958555952   T   T   T
  0.6712154297029708  0.0014763920230517  0.2838949455140811   T   T   T
  0.9953337486819501  0.3390171362483607  0.2885689993469129   T   T   T
  0.0014879332137889  0.6712141784495562  0.2838962982940665   T   T   T
  0.9975613751447093  0.9975637996973352  0.2849344169249426   T   T   T
  0.0875844266150627  0.0875806644576479  0.3855006177625195   T   T   T
  0.0727104313454005  0.5698981142170646  0.3895702308441035   T   T   T
  0.5698984688976536  0.0726947967035795  0.3895740888901566   T   T   T
  0.5853046196690526  0.5853155226096735  0.3853589086959650   T   T   T
  0.2503762183504412  0.2504094606379259  0.4120763603732828   T   T   T
  0.2443943640694487  0.7305520053825334  0.4006230795293817   T   T   T
  0.4066782947154702  0.9239177324885428  0.3527713880177945   T   T   T
  0.7304930915948704  0.2444352946319877  0.4006073840245755   T   T   T
  0.9239207967945645  0.4066912588628911  0.3527650696181303   T   T   T
  0.7498790681503977  0.7498270634525979  0.4104508893313308   T   T   T
 
             NaN             NaN             NaN
             NaN             NaN             NaN
             NaN             NaN             NaN
             NaN             NaN             NaN
             NaN             NaN             NaN
             NaN             NaN             NaN
             NaN             NaN             NaN
             NaN             NaN             NaN
             NaN             NaN             NaN
             NaN             NaN             NaN
             NaN             NaN             NaN
             NaN             NaN             NaN
             NaN             NaN             NaN
             NaN             NaN             NaN
             NaN             NaN             NaN
             NaN             NaN             NaN
             NaN             NaN             NaN
             NaN             NaN             NaN
             NaN             NaN             NaN
             NaN             NaN             NaN
             NaN             NaN             NaN
             NaN             NaN             NaN
             NaN             NaN             NaN
             NaN             NaN             NaN
             NaN             NaN             NaN
             NaN             NaN             NaN
             NaN             NaN             NaN
             NaN             NaN             NaN
             NaN             NaN             NaN
             NaN             NaN             NaN
             NaN             NaN             NaN
             NaN             NaN             NaN
             NaN             NaN             NaN
             NaN             NaN             NaN
             NaN             NaN             NaN
             NaN             NaN             NaN
             NaN             NaN             NaN
             NaN             NaN             NaN
             NaN             NaN             NaN
             NaN             NaN             NaN
             NaN             NaN             NaN
             NaN             NaN             NaN
             NaN             NaN             NaN
             NaN             NaN             NaN
             NaN             NaN             NaN
             NaN             NaN             NaN
