Ce2O4 unit in 15 A box (cluster referenc
   1.00000000000000     
    15.0000000000000000    0.0000000000000000    0.0000000000000000
     0.0000000000000000   15.0000000000000000    0.0000000000000000
     0.0000000000000000    0.0000000000000000   15.0000000000000000
   Ce   O 
     2     4
Direct
  0.3889220302579312  0.4966722125456750  0.4821069670064371
  0.6110155161581827  0.5035141825742122  0.5175458715885506
  0.4879477347071936  0.4666134129751631  0.5810713041333934
  0.5120149913892360  0.5332920109267965  0.4183828436696778
  0.3152699818480851  0.5932324428977443  0.5118088709815179
  0.6848297456393724  0.4066757380804081  0.4890841439537494
 
  0.00000000E+00  0.00000000E+00  0.00000000E+00
  0.00000000E+00  0.00000000E+00  0.00000000E+00
  0.00000000E+00  0.00000000E+00  0.00000000E+00
  0.00000000E+00  0.00000000E+00  0.00000000E+00
  0.00000000E+00  0.00000000E+00  0.00000000E+00
  0.00000000E+00  0.00000000E+00  0.00000000E+00
