A-type Ce2O3(0001) bilayer (from relaxed
   1.00000000000000     
     8.1103017068999996    0.0000000000000000    0.0000000000000000
     4.0551508533999998    7.0237273105000000    0.0000000000000000
     0.0000000000000000    0.0000000000000000   30.0000000000000000
   Rh   Ce   O 
    36     4     6
Selective dynamics
Direct
  0.0000000000000000  0.0000000000000000  0.0666666666666700   F   F   F
  0.9999999996348308  0.3333333337841893  0.0666666666666700   F   F   F
  0.9999999999815401  0.6666666661446286  0.0666666666666700   F   F   F
  0.3333333330497439  0.0000000000000000  0.0666666666666700   F   F   F
  0.3333333326845747  0.3333333337841893  0.0666666666666700   F   F   F
  0.3333333330312840  0.6666666661446286  0.0666666666666700   F   F   F
  0.6666666660994878  0.0000000000000000  0.0666666666666700   F   F   F
  0.6666666669673234  0.3333333337841893  0.0666666666666700   F   F   F
  0.6666666673140256  0.6666666661446286  0.0666666666666700   F   F   F
  0.1111111106575677  0.1111111117359798  0.1402448179999993   F   F   F
  0.1111111110042771  0.4444444440964190  0.1402448179999993   F   F   F
  0.1111111106391078  0.7777777778806012  0.1402448179999993   F   F   F
  0.4444444437073116  0.1111111117359798  0.1402448179999993   F   F   F
  0.4444444440540209  0.4444444440964190  0.1402448179999993   F   F   F
  0.4444444449218494  0.7777777778806012  0.1402448179999993   F   F   F
  0.7777777779900532  0.1111111117359798  0.1402448179999993   F   F   F
  0.7777777783367625  0.4444444440964190  0.1402448179999993   F   F   F
  0.7777777779715933  0.7777777778806012  0.1402448179999993   F   F   F
  0.2230216032381424  0.2228573391972743  0.2112761668356651   T   T   T
  0.2243430250389348  0.5565965693749095  0.2135351367293369   T   T   T
  0.2249747566894273  0.8863303506688964  0.2118664362279971   T   T   T
  0.5567059032960888  0.2242062482038419  0.2136102793573401   T   T   T
  0.5544568142636125  0.5542766426985195  0.2154713860147922   T   T   T
  0.5558798044628886  0.8880785124235423  0.2116858939104340   T   T   T
  0.8864031925696135  0.2248345819240855  0.2118615820284291   T   T   T
  0.8881169458117663  0.5557677515484235  0.2116525784169464   T   T   T
  0.8893620392387324  0.8893064379773019  0.2118319674857432   T   T   T
  0.3315705992076415  0.3314761290053381  0.2853417712892967   T   T   T
  0.3275043943286564  0.6752993148878617  0.2900655106101744   T   T   T
  0.3355494633888739  0.0032835497056900  0.2840019325190959   T   T   T
  0.6756268892204615  0.3271139762399096  0.2903550440615199   T   T   T
  0.6694821334478599  0.6692599363750319  0.2856036226752156   T   T   T
  0.6662966525491324  0.9970625986053656  0.2849268352083706   T   T   T
  0.0033400768495336  0.3352994827581099  0.2839768677797960   T   T   T
  0.9974163497077750  0.6655555567653867  0.2848234418312531   T   T   T
  0.0027617796684134  0.0026431638319028  0.2819275893333803   T   T   T
  0.9168974740758230  0.4157960860946340  0.3968775021320661   T   T   T
  0.9362221045068061  0.9367040160028056  0.3773976460722651   T   T   T
  0.4356391079374838  0.4363238817494732  0.3855344863352869   T   T   T
  0.4138346166675054  0.9116474486460686  0.3967877021494127   T   T   T
  0.2660811292250543  0.7436048510094101  0.3572964494705724   T   T   T
  0.0790398365950014  0.0731521460977030  0.4156031318703909   T   T   T
  0.2675378477322904  0.2858391227052358  0.4015372500839787   T   T   T
  0.5781165014824526  0.5847246030980576  0.4206879689129682   T   T   T
  0.7829070714023030  0.7776386921715919  0.3970888618640137   T   T   T
  0.7443963344022034  0.2661101536132757  0.3576209487340362   T   T   T
 
  0.00000000E+00  0.00000000E+00  0.00000000E+00
  0.00000000E+00  0.00000000E+00  0.00000000E+00
  0.00000000E+00  0.00000000E+00  0.00000000E+00
  0.00000000E+00  0.00000000E+00  0.00000000E+00
  0.00000000E+00  0.00000000E+00  0.00000000E+00
  0.00000000E+00  0.00000000E+00  0.00000000E+00
  0.00000000E+00  0.00000000E+00  0.00000000E+00
  0.00000000E+00  0.00000000E+00  0.00000000E+00
  0.00000000E+00  0.00000000E+00  0.00000000E+00
  0.00000000E+00  0.00000000E+00  0.00000000E+00
  0.00000000E+00  0.00000000E+00  0.00000000E+00
  0.00000000E+00  0.00000000E+00  0.00000000E+00
  0.00000000E+00  0.00000000E+00  0.00000000E+00
  0.00000000E+00  0.00000000E+00  0.00000000E+00
  0.00000000E+00  0.00000000E+00  0.00000000E+00
  0.00000000E+00  0.00000000E+00  0.00000000E+00
  0.00000000E+00  0.00000000E+00  0.00000000E+00
  0.00000000E+00  0.00000000E+00  0.00000000E+00
  0.00000000E+00  0.00000000E+00  0.00000000E+00
  0.00000000E+00  0.00000000E+00  0.00000000E+00
  0.00000000E+00  0.00000000E+00  0.00000000E+00
  0.00000000E+00  0.00000000E+00  0.00000000E+00
  0.00000000E+00  0.00000000E+00  0.00000000E+00
  0.00000000E+00  0.00000000E+00  0.00000000E+00
  0.00000000E+00  0.00000000E+00  0.00000000E+00
  0.00000000E+00  0.00000000E+00  0.00000000E+00
  0.00000000E+00  0.00000000E+00  0.00000000E+00
  0.00000000E+00  0.00000000E+00  0.00000000E+00
  0.00000000E+00  0.00000000E+00  0.00000000E+00
  0.00000000E+00  0.00000000E+00  0.00000000E+00
  0.00000000E+00  0.00000000E+00  0.00000000E+00
  0.00000000E+00  0.00000000E+00  0.00000000E+00
  0.00000000E+00  0.00000000E+00  0.00000000E+00
  0.00000000E+00  0.00000000E+00  0.00000000E+00
  0.00000000E+00  0.00000000E+00  0.00000000E+00
  0.00000000E+00  0.00000000E+00  0.00000000E+00
  0.00000000E+00  0.00000000E+00  0.00000000E+00
  0.00000000E+00  0.00000000E+00  0.00000000E+00
  0.00000000E+00  0.00000000E+00  0.00000000E+00
  0.00000000E+00  0.00000000E+00  0.00000000E+00
  0.00000000E+00  0.00000000E+00  0.00000000E+00
  0.00000000E+00  0.00000000E+00  0.00000000E+00
  0.00000000E+00  0.00000000E+00  0.00000000E+00
  0.00000000E+00  0.00000000E+00  0.00000000E+00
  0.00000000E+00  0.00000000E+00  0.00000000E+00
  0.00000000E+00  0.00000000E+00  0.00000000E+00
