Ce2O4 unit (2 CeO2) on Rh(111) 3x3, O to
   1.00000000000000     
     8.1103017068999996    0.0000000000000000    0.0000000000000000
     4.0551508533999998    7.0237273105000000    0.0000000000000000
     0.0000000000000000    0.0000000000000000   30.0000000000000000
   Rh   Ce   O 
    36     2     4
Selective dynamics
Direct
  0.0000000000000000  0.0000000000000000  0.0666666666666700   F   F   F
  0.9999999996348308  0.3333333337841893  0.0666666666666700   F   F   F
  0.9999999999815401  0.6666666661446286  0.0666666666666700   F   F   F
  0.3333333330497439  0.0000000000000000  0.0666666666666700   F   F   F
  0.3333333326845747  0.3333333337841893  0.0666666666666700   F   F   F
  0.3333333330312840  0.6666666661446286  0.0666666666666700   F   F   F
  0.6666666660994878  0.0000000000000000  0.0666666666666700   F   F   F
  0.6666666669673234  0.3333333337841893  0.0666666666666700   F   F   F
  0.6666666673140256  0.6666666661446286  0.0666666666666700   F   F   F
  0.1111111106575677  0.1111111117359798  0.1402448179999993   F   F   F
  0.1111111110042771  0.4444444440964190  0.1402448179999993   F   F   F
  0.1111111106391078  0.7777777778806012  0.1402448179999993   F   F   F
  0.4444444437073116  0.1111111117359798  0.1402448179999993   F   F   F
  0.4444444440540209  0.4444444440964190  0.1402448179999993   F   F   F
  0.4444444449218494  0.7777777778806012  0.1402448179999993   F   F   F
  0.7777777779900532  0.1111111117359798  0.1402448179999993   F   F   F
  0.7777777783367625  0.4444444440964190  0.1402448179999993   F   F   F
  0.7777777779715933  0.7777777778806012  0.1402448179999993   F   F   F
  0.2225152330185254  0.2222788249878137  0.2109420086010266   T   T   T
  0.2233233965731130  0.5535159078577591  0.2118637518918390   T   T   T
  0.2240695074450658  0.8881913792534957  0.2130482499939685   T   T   T
  0.5532135829446310  0.2237571679293167  0.2123411188977502   T   T   T
  0.5544738324486334  0.5579188946164224  0.2143394630316343   T   T   T
  0.5542070502287464  0.8876571757820552  0.2135913962284106   T   T   T
  0.8892153104969434  0.2231994037051404  0.2116732783462137   T   T   T
  0.8876704815241178  0.5569618444127578  0.2146642304353971   T   T   T
  0.8880306265308088  0.8881573558489492  0.2118240033281912   T   T   T
  0.3351634267480572  0.3266315765632917  0.2865228682758813   T   T   T
  0.3260009257461606  0.6661099137768116  0.2873640888169456   T   T   T
  0.3309522668421532  0.0022510679306853  0.2864594503814231   T   T   T
  0.6685177474044044  0.3285541871121629  0.2848832834282490   T   T   T
  0.6625262440638411  0.6728060646147150  0.2883100661941419   T   T   T
  0.6699142666594170  0.0009071628417989  0.2843127608403349   T   T   T
 -0.0001306969552006  0.3272854452491018  0.2855021666411626   T   T   T
  0.0061878348681194  0.6719603203899358  0.2872830346685822   T   T   T
  0.9911363302822322  0.0042477071645666  0.2838723953427272   T   T   T
  0.5406276997737288  0.5080205728472792  0.3747979686015905   T   T   T
  0.9733583172468050  0.4970860204512106  0.3770814438731290   T   T   T
  0.8128595555527343  0.3774655168591696  0.4095351913350930   T   T   T
  0.6629230015583193  0.6936909608425630  0.3563169468060647   T   T   T
  0.1819796808499862  0.6414377143735085  0.3436778464906253   T   T   T
  0.2096402373485448  0.2272625173413787  0.3335559596575190   T   T   T
 
  0.00000000E+00  0.00000000E+00  0.00000000E+00
  0.00000000E+00  0.00000000E+00  0.00000000E+00
  0.00000000E+00  0.00000000E+00  0.00000000E+00
  0.00000000E+00  0.00000000E+00  0.00000000E+00
  0.00000000E+00  0.00000000E+00  0.00000000E+00
  0.00000000E+00  0.00000000E+00  0.00000000E+00
  0.00000000E+00  0.00000000E+00  0.00000000E+00
  0.00000000E+00  0.00000000E+00  0.00000000E+00
  0.00000000E+00  0.00000000E+00  0.00000000E+00
  0.00000000E+00  0.00000000E+00  0.00000000E+00
  0.00000000E+00  0.00000000E+00  0.00000000E+00
  0.00000000E+00  0.00000000E+00  0.00000000E+00
  0.00000000E+00  0.00000000E+00  0.00000000E+00
  0.00000000E+00  0.00000000E+00  0.00000000E+00
  0.00000000E+00  0.00000000E+00  0.00000000E+00
  0.00000000E+00  0.00000000E+00  0.00000000E+00
  0.00000000E+00  0.00000000E+00  0.00000000E+00
  0.00000000E+00  0.00000000E+00  0.00000000E+00
  0.00000000E+00  0.00000000E+00  0.00000000E+00
  0.00000000E+00  0.00000000E+00  0.00000000E+00
  0.00000000E+00  0.00000000E+00  0.00000000E+00
  0.00000000E+00  0.00000000E+00  0.00000000E+00
  0.00000000E+00  0.00000000E+00  0.00000000E+00
  0.00000000E+00  0.00000000E+00  0.00000000E+00
  0.00000000E+00  0.00000000E+00  0.00000000E+00
  0.00000000E+00  0.00000000E+00  0.00000000E+00
  0.00000000E+00  0.00000000E+00  0.00000000E+00
  0.00000000E+00  0.00000000E+00  0.00000000E+00
  0.00000000E+00  0.00000000E+00  0.00000000E+00
  0.00000000E+00  0.00000000E+00  0.00000000E+00
  0.00000000E+00  0.00000000E+00  0.00000000E+00
  0.00000000E+00  0.00000000E+00  0.00000000E+00
  0.00000000E+00  0.00000000E+00  0.00000000E+00
  0.00000000E+00  0.00000000E+00  0.00000000E+00
  0.00000000E+00  0.00000000E+00  0.00000000E+00
  0.00000000E+00  0.00000000E+00  0.00000000E+00
  0.00000000E+00  0.00000000E+00  0.00000000E+00
  0.00000000E+00  0.00000000E+00  0.00000000E+00
  0.00000000E+00  0.00000000E+00  0.00000000E+00
  0.00000000E+00  0.00000000E+00  0.00000000E+00
  0.00000000E+00  0.00000000E+00  0.00000000E+00
  0.00000000E+00  0.00000000E+00  0.00000000E+00
