2x2 Ce2O3-type layer Ce4O6 on Rh(111) 3x
   1.00000000000000     
     8.1103017068999996    0.0000000000000000    0.0000000000000000
     4.0551508533999998    7.0237273105000000    0.0000000000000000
     0.0000000000000000    0.0000000000000000   30.0000000000000000
   Rh   Ce   O 
    36     4     6
Selective dynamics
Direct
  0.0000000000000000  0.0000000000000000  0.0666666666666700   F   F   F
  0.9999999996348308  0.3333333337841893  0.0666666666666700   F   F   F
  0.9999999999815401  0.6666666661446286  0.0666666666666700   F   F   F
  0.3333333330497439  0.0000000000000000  0.0666666666666700   F   F   F
  0.3333333326845747  0.3333333337841893  0.0666666666666700   F   F   F
  0.3333333330312840  0.6666666661446286  0.0666666666666700   F   F   F
  0.6666666660994878  0.0000000000000000  0.0666666666666700   F   F   F
  0.6666666669673234  0.3333333337841893  0.0666666666666700   F   F   F
  0.6666666673140256  0.6666666661446286  0.0666666666666700   F   F   F
  0.1111111106575677  0.1111111117359798  0.1402448179999993   F   F   F
  0.1111111110042771  0.4444444440964190  0.1402448179999993   F   F   F
  0.1111111106391078  0.7777777778806012  0.1402448179999993   F   F   F
  0.4444444437073116  0.1111111117359798  0.1402448179999993   F   F   F
  0.4444444440540209  0.4444444440964190  0.1402448179999993   F   F   F
  0.4444444449218494  0.7777777778806012  0.1402448179999993   F   F   F
  0.7777777779900532  0.1111111117359798  0.1402448179999993   F   F   F
  0.7777777783367625  0.4444444440964190  0.1402448179999993   F   F   F
  0.7777777779715933  0.7777777778806012  0.1402448179999993   F   F   F
  0.2218747645197294  0.2218850423060676  0.2170471105500697   T   T   T
  0.2230653069276166  0.5555122327349763  0.2109820720212729   T   T   T
  0.2227461637886563  0.8908292196164778  0.2163396574972565   T   T   T
  0.5555150450571931  0.2230667237072186  0.2109833681205339   T   T   T
  0.5556994791195425  0.5556946224190682  0.2111798190907470   T   T   T
  0.5528076825610300  0.8895829147996608  0.2115248804595436   T   T   T
  0.8908317503671995  0.2227569763906375  0.2163460413704290   T   T   T
  0.8895890414788405  0.5528023973793549  0.2115244185013108   T   T   T
  0.8902726469840685  0.8902643613125807  0.2104625059983361   T   T   T
  0.3341359364208946  0.3341301446876352  0.2852121902502272   T   T   T
  0.3343315132159605  0.6698505761326793  0.2853093111940690   T   T   T
  0.3432841852475472  0.9972925551804851  0.2957506467829132   T   T   T
  0.6698330810326231  0.3343360845944328  0.2853158478909317   T   T   T
  0.6677443280891908  0.6677362587701424  0.2834099430336524   T   T   T
  0.6686629695167579  0.9956219125676280  0.2806758807322141   T   T   T
  0.9973241635041326  0.3432867537454667  0.2957669349963306   T   T   T
  0.9956323336251376  0.6686582238865038  0.2806780578880070   T   T   T
  0.9959675185182257  0.9959467757400895  0.2898426791347767   T   T   T
  0.0883436738121624  0.0882820227041851  0.3892834804042068   T   T   T
  0.1207998532654191  0.6130950728967488  0.3718828050209959   T   T   T
  0.6131271015510552  0.1207148790894236  0.3718919008289937   T   T   T
  0.5877045626351033  0.5877181660885215  0.3820217448803705   T   T   T
  0.4354864451827765  0.4353725550241694  0.3426669843319633   T   T   T
  0.2816508309352906  0.7364592224152613  0.4110267045950379   T   T   T
  0.4170163204761196  0.9787848780269862  0.3695033046027122   T   T   T
  0.7364632936271882  0.2816166042987402  0.4110218826452224   T   T   T
  0.9789552984312005  0.4169651200927894  0.3695127256144161   T   T   T
  0.9369946319898208  0.9369673058311784  0.3585533858353315   T   T   T
 
  0.00000000E+00  0.00000000E+00  0.00000000E+00
  0.00000000E+00  0.00000000E+00  0.00000000E+00
  0.00000000E+00  0.00000000E+00  0.00000000E+00
  0.00000000E+00  0.00000000E+00  0.00000000E+00
  0.00000000E+00  0.00000000E+00  0.00000000E+00
  0.00000000E+00  0.00000000E+00  0.00000000E+00
  0.00000000E+00  0.00000000E+00  0.00000000E+00
  0.00000000E+00  0.00000000E+00  0.00000000E+00
  0.00000000E+00  0.00000000E+00  0.00000000E+00
  0.00000000E+00  0.00000000E+00  0.00000000E+00
  0.00000000E+00  0.00000000E+00  0.00000000E+00
  0.00000000E+00  0.00000000E+00  0.00000000E+00
  0.00000000E+00  0.00000000E+00  0.00000000E+00
  0.00000000E+00  0.00000000E+00  0.00000000E+00
  0.00000000E+00  0.00000000E+00  0.00000000E+00
  0.00000000E+00  0.00000000E+00  0.00000000E+00
  0.00000000E+00  0.00000000E+00  0.00000000E+00
  0.00000000E+00  0.00000000E+00  0.00000000E+00
  0.00000000E+00  0.00000000E+00  0.00000000E+00
  0.00000000E+00  0.00000000E+00  0.00000000E+00
  0.00000000E+00  0.00000000E+00  0.00000000E+00
  0.00000000E+00  0.00000000E+00  0.00000000E+00
  0.00000000E+00  0.00000000E+00  0.00000000E+00
  0.00000000E+00  0.00000000E+00  0.00000000E+00
  0.00000000E+00  0.00000000E+00  0.00000000E+00
  0.00000000E+00  0.00000000E+00  0.00000000E+00
  0.00000000E+00  0.00000000E+00  0.00000000E+00
  0.00000000E+00  0.00000000E+00  0.00000000E+00
  0.00000000E+00  0.00000000E+00  0.00000000E+00
  0.00000000E+00  0.00000000E+00  0.00000000E+00
  0.00000000E+00  0.00000000E+00  0.00000000E+00
  0.00000000E+00  0.00000000E+00  0.00000000E+00
  0.00000000E+00  0.00000000E+00  0.00000000E+00
  0.00000000E+00  0.00000000E+00  0.00000000E+00
  0.00000000E+00  0.00000000E+00  0.00000000E+00
  0.00000000E+00  0.00000000E+00  0.00000000E+00
  0.00000000E+00  0.00000000E+00  0.00000000E+00
  0.00000000E+00  0.00000000E+00  0.00000000E+00
  0.00000000E+00  0.00000000E+00  0.00000000E+00
  0.00000000E+00  0.00000000E+00  0.00000000E+00
  0.00000000E+00  0.00000000E+00  0.00000000E+00
  0.00000000E+00  0.00000000E+00  0.00000000E+00
  0.00000000E+00  0.00000000E+00  0.00000000E+00
  0.00000000E+00  0.00000000E+00  0.00000000E+00
  0.00000000E+00  0.00000000E+00  0.00000000E+00
  0.00000000E+00  0.00000000E+00  0.00000000E+00
