2x2 CeO2(111) O-Ce-O trilayer on Rh(111)
   1.00000000000000     
     8.1103017068999996    0.0000000000000000    0.0000000000000000
     4.0551508533999998    7.0237273105000000    0.0000000000000000
     0.0000000000000000    0.0000000000000000   30.0000000000000000
   Rh   Ce   O 
    36     4     8
Selective dynamics
Direct
  0.0000000000000000  0.0000000000000000  0.0666666666666700   F   F   F
  0.9999999996348308  0.3333333337841893  0.0666666666666700   F   F   F
  0.9999999999815401  0.6666666661446286  0.0666666666666700   F   F   F
  0.3333333330497439  0.0000000000000000  0.0666666666666700   F   F   F
  0.3333333326845747  0.3333333337841893  0.0666666666666700   F   F   F
  0.3333333330312840  0.6666666661446286  0.0666666666666700   F   F   F
  0.6666666660994878  0.0000000000000000  0.0666666666666700   F   F   F
  0.6666666669673234  0.3333333337841893  0.0666666666666700   F   F   F
  0.6666666673140256  0.6666666661446286  0.0666666666666700   F   F   F
  0.1111111106575677  0.1111111117359798  0.1402448179999993   F   F   F
  0.1111111110042771  0.4444444440964190  0.1402448179999993   F   F   F
  0.1111111106391078  0.7777777778806012  0.1402448179999993   F   F   F
  0.4444444437073116  0.1111111117359798  0.1402448179999993   F   F   F
  0.4444444440540209  0.4444444440964190  0.1402448179999993   F   F   F
  0.4444444449218494  0.7777777778806012  0.1402448179999993   F   F   F
  0.7777777779900532  0.1111111117359798  0.1402448179999993   F   F   F
  0.7777777783367625  0.4444444440964190  0.1402448179999993   F   F   F
  0.7777777779715933  0.7777777778806012  0.1402448179999993   F   F   F
  0.2218388871062973  0.2218641848770817  0.2158139865337530   T   T   T
  0.2218317899193690  0.5563136838294711  0.2158161130974412   T   T   T
  0.2229592554811865  0.8885134716541475  0.2104722438065871   T   T   T
  0.5562927537710622  0.2218501679749885  0.2158150819626271   T   T   T
  0.5546168379127548  0.5546142046754257  0.2122253007214322   T   T   T
  0.5546229225935990  0.8907698557617639  0.2122221971657826   T   T   T
  0.8885351467377151  0.2229647965057392  0.2104700925558377   T   T   T
  0.8907827366780089  0.5546155779345693  0.2122219751775616   T   T   T
  0.8885257624397570  0.8884927298035211  0.2104700943600040   T   T   T
  0.3333354341515675  0.3333328358356815  0.2890417994541805   T   T   T
  0.3315527085098557  0.6721760275630596  0.2875060323114087   T   T   T
  0.3315487011426698  0.9962770325068885  0.2875037358177880   T   T   T
  0.6721798703063799  0.3315445698341511  0.2875074292363513   T   T   T
  0.6666640462074457  0.6666799521783324  0.2831519933887100   T   T   T
  0.6721887082491543  0.9962654713152030  0.2875050408109754   T   T   T
  0.9962750823719569  0.3315441272005342  0.2874996089224532   T   T   T
  0.9962573700469833  0.6721920660097989  0.2874987454410479   T   T   T
 -0.0000046254547157  0.9999913442090530  0.2807866276016628   T   T   T
  0.9999956471194723  0.0000092191969975  0.3746499551326189   T   T   T
  0.0047830253262496  0.4975940153794383  0.3776540127772552   T   T   T
  0.4976084258060303  0.0047592031039667  0.3776560184958009   T   T   T
  0.4976253467266227  0.4976085494921932  0.3776573777919836   T   T   T
  0.1639144139206885  0.1639309738364026  0.4000390891921902   T   T   T
  0.3332827902521986  0.3333433875401912  0.3568474875799578   T   T   T
  0.1639123556976700  0.6721562325326895  0.4000383010576005   T   T   T
  0.3289064390798516  0.8355620860278595  0.3451064366991526   T   T   T
  0.6721623086880703  0.1639268065353342  0.4000365161617283   T   T   T
  0.8355625409134650  0.3289305677560065  0.3451130628900550   T   T   T
  0.6666808305855728  0.6666608701762384  0.3980689259102156   T   T   T
  0.8355365362304051  0.8355288880990585  0.3451105301349990   T   T   T
 
  0.00000000E+00  0.00000000E+00  0.00000000E+00
  0.00000000E+00  0.00000000E+00  0.00000000E+00
  0.00000000E+00  0.00000000E+00  0.00000000E+00
  0.00000000E+00  0.00000000E+00  0.00000000E+00
  0.00000000E+00  0.00000000E+00  0.00000000E+00
  0.00000000E+00  0.00000000E+00  0.00000000E+00
  0.00000000E+00  0.00000000E+00  0.00000000E+00
  0.00000000E+00  0.00000000E+00  0.00000000E+00
  0.00000000E+00  0.00000000E+00  0.00000000E+00
  0.00000000E+00  0.00000000E+00  0.00000000E+00
  0.00000000E+00  0.00000000E+00  0.00000000E+00
  0.00000000E+00  0.00000000E+00  0.00000000E+00
  0.00000000E+00  0.00000000E+00  0.00000000E+00
  0.00000000E+00  0.00000000E+00  0.00000000E+00
  0.00000000E+00  0.00000000E+00  0.00000000E+00
  0.00000000E+00  0.00000000E+00  0.00000000E+00
  0.00000000E+00  0.00000000E+00  0.00000000E+00
  0.00000000E+00  0.00000000E+00  0.00000000E+00
  0.00000000E+00  0.00000000E+00  0.00000000E+00
  0.00000000E+00  0.00000000E+00  0.00000000E+00
  0.00000000E+00  0.00000000E+00  0.00000000E+00
  0.00000000E+00  0.00000000E+00  0.00000000E+00
  0.00000000E+00  0.00000000E+00  0.00000000E+00
  0.00000000E+00  0.00000000E+00  0.00000000E+00
  0.00000000E+00  0.00000000E+00  0.00000000E+00
  0.00000000E+00  0.00000000E+00  0.00000000E+00
  0.00000000E+00  0.00000000E+00  0.00000000E+00
  0.00000000E+00  0.00000000E+00  0.00000000E+00
  0.00000000E+00  0.00000000E+00  0.00000000E+00
  0.00000000E+00  0.00000000E+00  0.00000000E+00
  0.00000000E+00  0.00000000E+00  0.00000000E+00
  0.00000000E+00  0.00000000E+00  0.00000000E+00
  0.00000000E+00  0.00000000E+00  0.00000000E+00
  0.00000000E+00  0.00000000E+00  0.00000000E+00
  0.00000000E+00  0.00000000E+00  0.00000000E+00
  0.00000000E+00  0.00000000E+00  0.00000000E+00
  0.00000000E+00  0.00000000E+00  0.00000000E+00
  0.00000000E+00  0.00000000E+00  0.00000000E+00
  0.00000000E+00  0.00000000E+00  0.00000000E+00
  0.00000000E+00  0.00000000E+00  0.00000000E+00
  0.00000000E+00  0.00000000E+00  0.00000000E+00
  0.00000000E+00  0.00000000E+00  0.00000000E+00
  0.00000000E+00  0.00000000E+00  0.00000000E+00
  0.00000000E+00  0.00000000E+00  0.00000000E+00
  0.00000000E+00  0.00000000E+00  0.00000000E+00
  0.00000000E+00  0.00000000E+00  0.00000000E+00
  0.00000000E+00  0.00000000E+00  0.00000000E+00
  0.00000000E+00  0.00000000E+00  0.00000000E+00
