free-standing 2x2 film in the 3x3 Rh(111
   1.00000000000000     
     8.1103017068999996    0.0000000000000000    0.0000000000000000
     4.0551508533999998    7.0237273105000000    0.0000000000000000
     0.0000000000000000    0.0000000000000000   30.0000000000000000
   Ce   O 
     4     8
Selective dynamics
Direct
  0.1111101096289497  0.1111093931639865  0.3838677721166431   T   T   T
  0.1111097717679635  0.6111115482969111  0.3838677337921524   T   T   T
  0.6111139940733752  0.1111097394054049  0.3838675594086051   T   T   T
  0.6111113127711195  0.6111120153716404  0.3838675515086420   T   T   T
  0.2777889455496937  0.2777693978813919  0.4082274481461331   T   T   T
  0.4444496622149609  0.4444275958482344  0.3595082743689690   T   T   T
  0.2777706057775898  0.7777843934081137  0.4082273992190373   T   T   T
  0.4444446216619023  0.9444596266268467  0.3595083319681553   T   T   T
  0.7777770875740360  0.2777640154877172  0.4082273535364687   T   T   T
  0.9444522715983426  0.4444374370571291  0.3595081231858044   T   T   T
  0.7777724569934885  0.7777942359919808  0.4082274877535457   T   T   T
  0.9444324918317706  0.9444539348177183  0.3595084089958414   T   T   T
 
  0.00000000E+00  0.00000000E+00  0.00000000E+00
  0.00000000E+00  0.00000000E+00  0.00000000E+00
  0.00000000E+00  0.00000000E+00  0.00000000E+00
  0.00000000E+00  0.00000000E+00  0.00000000E+00
  0.00000000E+00  0.00000000E+00  0.00000000E+00
  0.00000000E+00  0.00000000E+00  0.00000000E+00
  0.00000000E+00  0.00000000E+00  0.00000000E+00
  0.00000000E+00  0.00000000E+00  0.00000000E+00
  0.00000000E+00  0.00000000E+00  0.00000000E+00
  0.00000000E+00  0.00000000E+00  0.00000000E+00
  0.00000000E+00  0.00000000E+00  0.00000000E+00
  0.00000000E+00  0.00000000E+00  0.00000000E+00
