2x2 CeO2(111) O-Ce-O trilayer on Rh(111)
   1.00000000000000     
     8.1103017068999996    0.0000000000000000    0.0000000000000000
     4.0551508533999998    7.0237273105000000    0.0000000000000000
     0.0000000000000000    0.0000000000000000   30.0000000000000000
   Rh   Ce   O 
    36     4     8
Selective dynamics
Direct
  0.0000000000000000  0.0000000000000000  0.0666666666666700   F   F   F
  0.9999999996348308  0.3333333337841893  0.0666666666666700   F   F   F
  0.9999999999815401  0.6666666661446286  0.0666666666666700   F   F   F
  0.3333333330497439  0.0000000000000000  0.0666666666666700   F   F   F
  0.3333333326845747  0.3333333337841893  0.0666666666666700   F   F   F
  0.3333333330312840  0.6666666661446286  0.0666666666666700   F   F   F
  0.6666666660994878  0.0000000000000000  0.0666666666666700   F   F   F
  0.6666666669673234  0.3333333337841893  0.0666666666666700   F   F   F
  0.6666666673140256  0.6666666661446286  0.0666666666666700   F   F   F
  0.1111111106575677  0.1111111117359798  0.1402448179999993   F   F   F
  0.1111111110042771  0.4444444440964190  0.1402448179999993   F   F   F
  0.1111111106391078  0.7777777778806012  0.1402448179999993   F   F   F
  0.4444444437073116  0.1111111117359798  0.1402448179999993   F   F   F
  0.4444444440540209  0.4444444440964190  0.1402448179999993   F   F   F
  0.4444444449218494  0.7777777778806012  0.1402448179999993   F   F   F
  0.7777777779900532  0.1111111117359798  0.1402448179999993   F   F   F
  0.7777777783367625  0.4444444440964190  0.1402448179999993   F   F   F
  0.7777777779715933  0.7777777778806012  0.1402448179999993   F   F   F
  0.2216060012848053  0.2215881860544847  0.2159493374532000   T   T   T
  0.2221600758467719  0.5555878644420957  0.2115233036725029   T   T   T
  0.2216061391216860  0.8901369859539721  0.2159499190931027   T   T   T
  0.5555947058677745  0.2221503519559436  0.2115237800650207   T   T   T
  0.5555934081867900  0.5555896507013696  0.2115230826237943   T   T   T
  0.5537524181789479  0.8897892424282207  0.2115651074802901   T   T   T
  0.8901259464413540  0.2216031021614577  0.2159512390241776   T   T   T
  0.8897838419161123  0.5537497173341610  0.2115657515434005   T   T   T
  0.8897830909064927  0.8897962007785246  0.2115660274133479   T   T   T
  0.3333427184168101  0.3333307928962436  0.2864836878967053   T   T   T
  0.3333390342889364  0.6666620481965794  0.2864847780263838   T   T   T
  0.3404516715847936  0.9964358955457436  0.2898609386318335   T   T   T
  0.6666643334856776  0.3333309578750345  0.2864893980724998   T   T   T
  0.6684502792937133  0.6684440967476551  0.2835107785534655   T   T   T
  0.6684526653120867  0.9964325101022523  0.2835114970110903   T   T   T
  0.9964333102080776  0.3404486528580760  0.2898582699406086   T   T   T
  0.9964106180372809  0.6684591342019535  0.2835142790209373   T   T   T
  0.9964270691539332  0.9964412676304337  0.2898589994222919   T   T   T
  0.1110833466378861  0.1111038376058057  0.3801115273358749   T   T   T
  0.1124662716780730  0.6104482805697800  0.3785184409552117   T   T   T
  0.6105120337607459  0.1123272430910009  0.3785211171090525   T   T   T
  0.6105525431531417  0.6105167496055067  0.3785198206389055   T   T   T
  0.3011910430704217  0.3011804510301824  0.4027103576519744   T   T   T
  0.4443757408820467  0.4444764924196101  0.3347422606330476   T   T   T
  0.3011230070698195  0.7310866134990635  0.4026992063264672   T   T   T
  0.4147839115754074  0.9593020350324565  0.3572527161374325   T   T   T
  0.7311708792672286  0.3011147607967754  0.4026992494465605   T   T   T
  0.9593207391136145  0.4148086012325261  0.3572500038797677   T   T   T
  0.7776588201133918  0.7778241739556293  0.3995957662760867   T   T   T
  0.9592699702248968  0.9592333048793346  0.3572510840662000   T   T   T
 
  0.00000000E+00  0.00000000E+00  0.00000000E+00
  0.00000000E+00  0.00000000E+00  0.00000000E+00
  0.00000000E+00  0.00000000E+00  0.00000000E+00
  0.00000000E+00  0.00000000E+00  0.00000000E+00
  0.00000000E+00  0.00000000E+00  0.00000000E+00
  0.00000000E+00  0.00000000E+00  0.00000000E+00
  0.00000000E+00  0.00000000E+00  0.00000000E+00
  0.00000000E+00  0.00000000E+00  0.00000000E+00
  0.00000000E+00  0.00000000E+00  0.00000000E+00
  0.00000000E+00  0.00000000E+00  0.00000000E+00
  0.00000000E+00  0.00000000E+00  0.00000000E+00
  0.00000000E+00  0.00000000E+00  0.00000000E+00
  0.00000000E+00  0.00000000E+00  0.00000000E+00
  0.00000000E+00  0.00000000E+00  0.00000000E+00
  0.00000000E+00  0.00000000E+00  0.00000000E+00
  0.00000000E+00  0.00000000E+00  0.00000000E+00
  0.00000000E+00  0.00000000E+00  0.00000000E+00
  0.00000000E+00  0.00000000E+00  0.00000000E+00
  0.00000000E+00  0.00000000E+00  0.00000000E+00
  0.00000000E+00  0.00000000E+00  0.00000000E+00
  0.00000000E+00  0.00000000E+00  0.00000000E+00
  0.00000000E+00  0.00000000E+00  0.00000000E+00
  0.00000000E+00  0.00000000E+00  0.00000000E+00
  0.00000000E+00  0.00000000E+00  0.00000000E+00
  0.00000000E+00  0.00000000E+00  0.00000000E+00
  0.00000000E+00  0.00000000E+00  0.00000000E+00
  0.00000000E+00  0.00000000E+00  0.00000000E+00
  0.00000000E+00  0.00000000E+00  0.00000000E+00
  0.00000000E+00  0.00000000E+00  0.00000000E+00
  0.00000000E+00  0.00000000E+00  0.00000000E+00
  0.00000000E+00  0.00000000E+00  0.00000000E+00
  0.00000000E+00  0.00000000E+00  0.00000000E+00
  0.00000000E+00  0.00000000E+00  0.00000000E+00
  0.00000000E+00  0.00000000E+00  0.00000000E+00
  0.00000000E+00  0.00000000E+00  0.00000000E+00
  0.00000000E+00  0.00000000E+00  0.00000000E+00
  0.00000000E+00  0.00000000E+00  0.00000000E+00
  0.00000000E+00  0.00000000E+00  0.00000000E+00
  0.00000000E+00  0.00000000E+00  0.00000000E+00
  0.00000000E+00  0.00000000E+00  0.00000000E+00
  0.00000000E+00  0.00000000E+00  0.00000000E+00
  0.00000000E+00  0.00000000E+00  0.00000000E+00
  0.00000000E+00  0.00000000E+00  0.00000000E+00
  0.00000000E+00  0.00000000E+00  0.00000000E+00
  0.00000000E+00  0.00000000E+00  0.00000000E+00
  0.00000000E+00  0.00000000E+00  0.00000000E+00
  0.00000000E+00  0.00000000E+00  0.00000000E+00
  0.00000000E+00  0.00000000E+00  0.00000000E+00
