SYSTEM = A-type Ce2O3 bulk, AFM (stage-1 ground state), ISIF 3 at ENCUT 450 | bulk_isif3
PREC = Accurate
ENCUT = 450
ISPIN = 2
MAGMOM = 1.0 -1.0 3*0.0
ISYM = 0
LREAL = .FALSE.
LASPH = .TRUE.
ADDGRID = .TRUE.
LORBIT = 11
NELMIN = 4
AMIN = 0.01
MAXMIX = 40
AMIX_MAG = 0.4
BMIX_MAG = 1.0
ISMEAR = 0
SIGMA = 0.05
KPAR = 4
NCORE = 2
ISTART = 0
ICHARG = 2
ALGO = Normal
NELM = 200
EDIFF = 1E-7
IBRION = 2
POTIM = 0.20
NSW = 60
ISIF = 3
EDIFFG = -0.001
LWAVE = .FALSE.
LCHARG = .FALSE.
LDAU = .TRUE.
LDAUTYPE = 2
LDAUL = 3 -1
LDAUU = 5.0 0.0
LDAUJ = 0.0 0.0
LMAXMIX = 6
