SYSTEM = Ce2O3 unit in a 15 A box, start = round-1 relaxed 42 | stageB_relax
PREC = Accurate
ENCUT = 450
ISPIN = 2
MAGMOM = 2*1.0 3*0.0
ISYM = 0
LREAL = .FALSE.
LASPH = .TRUE.
ADDGRID = .TRUE.
LORBIT = 11
NELMIN = 4
AMIN = 0.01
MAXMIX = 40
AMIX_MAG = 0.4
BMIX_MAG = 1.0
ISMEAR = 0
SIGMA = 0.05
NCORE = 3
ISTART = 1
ICHARG = 1
ALGO = Normal
NELM = 300
EDIFF = 1E-5
IBRION = 2
POTIM = 0.20
NSW = 150
ISIF = 2
EDIFFG = -0.02
LWAVE = .TRUE.
LCHARG = .TRUE.
LDAU = .TRUE.
LDAUTYPE = 2
LDAUL = 3 -1
LDAUU = 5.0 0.0
LDAUJ = 0.0 0.0
LMAXMIX = 6
