Ce2O4 cluster on Rh(111) 4x4, start = S1
   1.00000000000000     
    10.8137356092000001    0.0000000000000000    0.0000000000000000
     5.4068678046000000    9.3649697473000000    0.0000000000000000
     0.0000000000000000    0.0000000000000000   25.9239999999999995
   Rh   Ce   O 
    64     2     4
Selective dynamics
Direct
  0.0000000000000000  0.0000000000000000  0.0000000000000000   F   F   F
  0.9999999997981206  0.2500000003390284  0.0000000000000000   F   F   F
  0.0000000000561613  0.4999999996102531  0.0000000000000000   F   F   F
  0.9999999997803002  0.7499999999492815  0.0000000000000000   F   F   F
  0.2499999997873061  0.0000000000000000  0.0000000000000000   F   F   F
  0.2499999995114450  0.2500000003390284  0.0000000000000000   F   F   F
  0.2499999997694928  0.4999999996102531  0.0000000000000000   F   F   F
  0.2500000004183818  0.7499999999492815  0.0000000000000000   F   F   F
  0.4999999995746123  0.0000000000000000  0.0000000000000000   F   F   F
  0.5000000002235012  0.2500000003390284  0.0000000000000000   F   F   F
  0.5000000004815490  0.4999999996102531  0.0000000000000000   F   F   F
  0.5000000002056879  0.7499999999492815  0.0000000000000000   F   F   F
  0.7500000002866756  0.0000000000000000  0.0000000000000000   F   F   F
  0.7500000000108145  0.2500000003390284  0.0000000000000000   F   F   F
  0.7500000002688552  0.4999999996102531  0.0000000000000000   F   F   F
  0.7499999999929940  0.7499999999492815  0.0000000000000000   F   F   F
  0.0833333329925168  0.0833333338022797  0.0851467574448392   F   F   F
  0.0833333332505575  0.3333333330734973  0.0851467574448392   F   F   F
  0.0833333329746964  0.5833333334125257  0.0851467574448392   F   F   F
  0.0833333326988352  0.8333333337515612  0.0851467574448392   F   F   F
  0.3333333327798229  0.0833333338022797  0.0851467574448392   F   F   F
  0.3333333330378636  0.3333333330734973  0.0851467574448392   F   F   F
  0.3333333336867526  0.5833333334125257  0.0851467574448392   F   F   F
  0.3333333334108914  0.8333333337515612  0.0851467574448392   F   F   F
  0.5833333334918791  0.0833333338022797  0.0851467574448392   F   F   F
  0.5833333337499198  0.3333333330734973  0.0851467574448392   F   F   F
  0.5833333334740587  0.5833333334125257  0.0851467574448392   F   F   F
  0.5833333331981976  0.8333333337515612  0.0851467574448392   F   F   F
  0.8333333332791852  0.0833333338022797  0.0851467574448392   F   F   F
  0.8333333335372330  0.3333333330734973  0.0851467574448392   F   F   F
  0.8333333332613719  0.5833333334125257  0.0851467574448392   F   F   F
  0.8333333329855108  0.8333333337515612  0.0851467574448392   F   F   F
  0.1642359471348960  0.1676347530615288  0.1697466669311145   T   T   T
  0.1669221177411447  0.4166843738279899  0.1681650629700706   T   T   T
  0.1671541120413734  0.6660519753872690  0.1680377417787752   T   T   T
  0.1670747524369073  0.9169273400709801  0.1679668325896138   T   T   T
  0.4168957525526228  0.1664858000527471  0.1682536935016312   T   T   T
  0.4173998074075061  0.4179185311788423  0.1693847253531558   T   T   T
  0.4177709803188474  0.6665006129814782  0.1703828505415859   T   T   T
  0.4177690124824959  0.9145864784674651  0.1695900652070376   T   T   T
  0.6677683765235245  0.1681606972054400  0.1697299008956254   T   T   T
  0.6647633873859353  0.4177905761986175  0.1686682075144945   T   T   T
  0.6660411603367977  0.6655385039265482  0.1705381388883063   T   T   T
  0.6662029721397291  0.9167470813110884  0.1682512305198991   T   T   T
  0.9165806765001113  0.1669400839151011  0.1681612902725389   T   T   T
  0.9169686941575209  0.4167167587472514  0.1675608029484256   T   T   T
  0.9162001366567779  0.6664422754466042  0.1684128497934948   T   T   T
  0.9168180032769431  0.9167483390371357  0.1684366550741697   T   T   T
  0.2495808198536380  0.2501105243254801  0.2523442291433128   T   T   T
  0.2481944938798218  0.4993769984215446  0.2522879543327868   T   T   T
  0.2448004053289596  0.7524583309400235  0.2517222711533244   T   T   T
  0.2474069846159108  0.0022684489218690  0.2524513348612096   T   T   T
  0.5000423209361403  0.2481541548914546  0.2522665743472082   T   T   T
  0.4963671216475048  0.4989266160417707  0.2559153742231524   T   T   T
  0.5010916569849697  0.7524498868869888  0.2567159109043894   T   T   T
  0.5001806289011590  0.0017077018291504  0.2522685223832945   T   T   T
  0.7519711627012229  0.2471274173083685  0.2545436718961219   T   T   T
  0.7543115419684486  0.4981050458402129  0.2525197221431349   T   T   T
  0.7523501666002135  0.7503869753327315  0.2524204541856985   T   T   T
  0.7504923592339140  0.0001132073142127  0.2523676575543222   T   T   T
  0.0023088821068460  0.2486990165414509  0.2553409298314341   T   T   T
  0.0031367135164278  0.5023329871406337  0.2522879448768284   T   T   T
  0.9989508805356413  0.7503221109945751  0.2527085771151966   T   T   T
  0.0024543112392859 -0.0053985709914843  0.2524262300660504   T   T   T
  0.3301726812930016  0.7111415302576768  0.3639391583858039   T   T   T
  0.6712330883622557  0.5340026364934126  0.3682176769145140   T   T   T
  0.5065317609853704  0.7524256542990057  0.3342295134623239   T   T   T
  0.4998749092617150  0.4927166893481612  0.3331547758813699   T   T   T
  0.4903757054051728  0.6236418618650338  0.4229984484477769   T   T   T
  0.8335246440739137  0.3346897950438970  0.3069409225343301   T   T   T
 
  0.00000000E+00  0.00000000E+00  0.00000000E+00
  0.00000000E+00  0.00000000E+00  0.00000000E+00
  0.00000000E+00  0.00000000E+00  0.00000000E+00
  0.00000000E+00  0.00000000E+00  0.00000000E+00
  0.00000000E+00  0.00000000E+00  0.00000000E+00
  0.00000000E+00  0.00000000E+00  0.00000000E+00
  0.00000000E+00  0.00000000E+00  0.00000000E+00
  0.00000000E+00  0.00000000E+00  0.00000000E+00
  0.00000000E+00  0.00000000E+00  0.00000000E+00
  0.00000000E+00  0.00000000E+00  0.00000000E+00
  0.00000000E+00  0.00000000E+00  0.00000000E+00
  0.00000000E+00  0.00000000E+00  0.00000000E+00
  0.00000000E+00  0.00000000E+00  0.00000000E+00
  0.00000000E+00  0.00000000E+00  0.00000000E+00
  0.00000000E+00  0.00000000E+00  0.00000000E+00
  0.00000000E+00  0.00000000E+00  0.00000000E+00
  0.00000000E+00  0.00000000E+00  0.00000000E+00
  0.00000000E+00  0.00000000E+00  0.00000000E+00
  0.00000000E+00  0.00000000E+00  0.00000000E+00
  0.00000000E+00  0.00000000E+00  0.00000000E+00
  0.00000000E+00  0.00000000E+00  0.00000000E+00
  0.00000000E+00  0.00000000E+00  0.00000000E+00
  0.00000000E+00  0.00000000E+00  0.00000000E+00
  0.00000000E+00  0.00000000E+00  0.00000000E+00
  0.00000000E+00  0.00000000E+00  0.00000000E+00
  0.00000000E+00  0.00000000E+00  0.00000000E+00
  0.00000000E+00  0.00000000E+00  0.00000000E+00
  0.00000000E+00  0.00000000E+00  0.00000000E+00
  0.00000000E+00  0.00000000E+00  0.00000000E+00
  0.00000000E+00  0.00000000E+00  0.00000000E+00
  0.00000000E+00  0.00000000E+00  0.00000000E+00
  0.00000000E+00  0.00000000E+00  0.00000000E+00
  0.00000000E+00  0.00000000E+00  0.00000000E+00
  0.00000000E+00  0.00000000E+00  0.00000000E+00
  0.00000000E+00  0.00000000E+00  0.00000000E+00
  0.00000000E+00  0.00000000E+00  0.00000000E+00
  0.00000000E+00  0.00000000E+00  0.00000000E+00
  0.00000000E+00  0.00000000E+00  0.00000000E+00
  0.00000000E+00  0.00000000E+00  0.00000000E+00
  0.00000000E+00  0.00000000E+00  0.00000000E+00
  0.00000000E+00  0.00000000E+00  0.00000000E+00
  0.00000000E+00  0.00000000E+00  0.00000000E+00
  0.00000000E+00  0.00000000E+00  0.00000000E+00
  0.00000000E+00  0.00000000E+00  0.00000000E+00
  0.00000000E+00  0.00000000E+00  0.00000000E+00
  0.00000000E+00  0.00000000E+00  0.00000000E+00
  0.00000000E+00  0.00000000E+00  0.00000000E+00
  0.00000000E+00  0.00000000E+00  0.00000000E+00
  0.00000000E+00  0.00000000E+00  0.00000000E+00
  0.00000000E+00  0.00000000E+00  0.00000000E+00
  0.00000000E+00  0.00000000E+00  0.00000000E+00
  0.00000000E+00  0.00000000E+00  0.00000000E+00
  0.00000000E+00  0.00000000E+00  0.00000000E+00
  0.00000000E+00  0.00000000E+00  0.00000000E+00
  0.00000000E+00  0.00000000E+00  0.00000000E+00
  0.00000000E+00  0.00000000E+00  0.00000000E+00
  0.00000000E+00  0.00000000E+00  0.00000000E+00
  0.00000000E+00  0.00000000E+00  0.00000000E+00
  0.00000000E+00  0.00000000E+00  0.00000000E+00
  0.00000000E+00  0.00000000E+00  0.00000000E+00
  0.00000000E+00  0.00000000E+00  0.00000000E+00
  0.00000000E+00  0.00000000E+00  0.00000000E+00
  0.00000000E+00  0.00000000E+00  0.00000000E+00
  0.00000000E+00  0.00000000E+00  0.00000000E+00
  0.00000000E+00  0.00000000E+00  0.00000000E+00
  0.00000000E+00  0.00000000E+00  0.00000000E+00
  0.00000000E+00  0.00000000E+00  0.00000000E+00
  0.00000000E+00  0.00000000E+00  0.00000000E+00
  0.00000000E+00  0.00000000E+00  0.00000000E+00
  0.00000000E+00  0.00000000E+00  0.00000000E+00
