SYSTEM = Ce2O4 cluster on Rh(111) 4x4, start = S1_12b + O in fcc hollow | stageB_relax
PREC = Accurate
ENCUT = 450
ISPIN = 2
ISYM = 0
LREAL = .FALSE.
LASPH = .TRUE.
ADDGRID = .TRUE.
LORBIT = 11
NELMIN = 4
AMIN = 0.01
MAXMIX = 40
AMIX_MAG = 0.4
BMIX_MAG = 1.0
ISMEAR = 1
SIGMA = 0.10
IDIPOL = 3
LDIPOL = .FALSE.
KPAR = 4
NCORE = 3
ISTART = 1
ICHARG = 1
ALGO = Normal
NELM = 300
EDIFF = 1E-5
IBRION = 2
POTIM = 0.20
NSW = 400
ISIF = 2
EDIFFG = -0.02
LWAVE = .TRUE.
LCHARG = .TRUE.
LDAU = .TRUE.
LDAUTYPE = 2
LDAUL = -1 3 -1
LDAUU = 0.0 5.0 0.0
LDAUJ = 0.0 0.0 0.0
LMAXMIX = 6
