SYSTEM = 2x2 Ce2O3-type layer Ce4O6 on Rh(111) 3x3, removed Ot0 Ob3, Ce0 over fcc
ISTART = 1
ICHARG = 1
PREC = Accurate
ENCUT = 400
EDIFF = 1E-4
NELM = 300
NELMIN = 4
ISPIN = 2
MAGMOM = 36*0.0 4*1.0 6*0.0
ISYM = 0
ISMEAR = 1
SIGMA = 0.10
ALGO = All
LREAL = .FALSE.
LASPH = .TRUE.
ADDGRID = .TRUE.
LORBIT = 11
IBRION = 1
POTIM = 0.15
NSW = 200
ISIF = 2
EDIFFG = -0.02
IDIPOL = 3
LDIPOL = .FALSE.
KPAR = 4
NCORE = 3
LWAVE = .TRUE.
LCHARG = .TRUE.
LDAU = .TRUE.
LDAUTYPE = 2
LDAUL = -1 3 -1
LDAUU = 0.0 5.0 0.0
LDAUJ = 0.0 0.0 0.0
LMAXMIX = 6
AMIN = 0.01
MAXMIX = 40
AMIX_MAG = 0.4
BMIX_MAG = 1.0
