Ce2O3 cluster on Rh(111) 4x4, start = stage-3 S1_12b relaxed
1.0
  10.8137356092  0.0000000000  0.0000000000
  5.4068678046  9.3649697473  0.0000000000
  0.0000000000  0.0000000000  25.9240000000
Rh  Ce  O
64  2  3
Selective dynamics
Cartesian
  0.00000000  0.00000000  0.00000000  F F F
  12.16545256  2.34124244  0.00000000  F F F
  13.51716951  4.68248487  0.00000000  F F F
  14.86888646  7.02372731  0.00000000  F F F
  2.70343390  0.00000000  0.00000000  F F F
  4.05515085  2.34124244  0.00000000  F F F
  5.40686780  4.68248487  0.00000000  F F F
  6.75858476  7.02372731  0.00000000  F F F
  5.40686780  0.00000000  0.00000000  F F F
  6.75858476  2.34124244  0.00000000  F F F
  8.11030171  4.68248487  0.00000000  F F F
  9.46201866  7.02372731  0.00000000  F F F
  8.11030171  0.00000000  0.00000000  F F F
  9.46201866  2.34124244  0.00000000  F F F
  10.81373561  4.68248487  0.00000000  F F F
  12.16545256  7.02372731  0.00000000  F F F
  1.35171695  0.78041415  2.20734454  F F F
  2.70343390  3.12165658  2.20734454  F F F
  4.05515085  5.46289902  2.20734454  F F F
  5.40686780  7.80414146  2.20734454  F F F
  4.05515085  0.78041415  2.20734454  F F F
  5.40686780  3.12165658  2.20734454  F F F
  6.75858476  5.46289902  2.20734454  F F F
  8.11030171  7.80414146  2.20734454  F F F
  6.75858476  0.78041415  2.20734454  F F F
  8.11030171  3.12165658  2.20734454  F F F
  9.46201866  5.46289902  2.20734454  F F F
  10.81373561  7.80414146  2.20734454  F F F
  9.46201866  0.78041415  2.20734454  F F F
  10.81373561  3.12165658  2.20734454  F F F
  12.16545256  5.46289902  2.20734454  F F F
  13.51716951  7.80414146  2.20734454  F F F
  2.70293111  1.55776704  4.36414223  T T T
  4.05665117  3.90289791  4.36393284  T T T
  5.40728597  6.23756461  4.35534854  T T T
  6.76342985  8.58615677  4.35529730  T T T
  5.40619616  1.56009520  4.36183513  T T T
  6.77059287  3.91203410  4.38897976  T T T
  8.11718767  6.23842750  4.41501064  T T T
  9.45876106  8.56704807  4.39081216  T T T
  8.10991123  1.56401076  4.36460051  T T T
  9.44777229  3.91270872  4.38899065  T T T
  10.79651190  6.25019651  4.38850170  T T T
  12.16202057  8.58241421  4.36511474  T T T
  10.81178691  1.56611769  4.36732753  T T T
  12.16607428  3.90093721  4.35152622  T T T
  13.51095108  6.24170146  4.36762138  T T T
  14.87043268  8.58320574  4.36711822  T T T
  4.05051371  2.34237323  6.54158193  T T T
  5.37951214  4.68347539  6.54256868  T T T
  6.70785419  7.05171261  6.53292878  T T T
  2.68822556  0.02005628  6.54320139  T T T
  6.74707539  2.32264052  6.53539202  T T T
  8.09449520  4.64825335  6.63228010  T T T
  9.48159289  7.04721970  6.63660074  T T T
  5.41548012  0.01565329  6.53586244  T T T
  9.47429080  2.31377644  6.54676784  T T T
  10.86065860  4.65570242  6.52684435  T T T
  12.19366321  7.02559151  6.54672791  T T T
  8.11408232  -0.00286202  6.53939760  T T T
  12.16994638  2.33794463  6.55332163  T T T
  2.70686914  4.67825028  6.55263537  T T T
  14.86519570  7.02333453  6.55263946  T T T
  10.81145523  0.00201992  6.55294496  T T T
  7.41216911  6.63673233  9.43631395  T T T
  10.14661237  5.01401686  9.43297234  T T T
  9.51014510  7.06790929  8.64549479  T T T
  8.04823438  4.59057791  8.64196232  T T T
  8.77221283  5.82707938  10.92362524  T T T
