Ce2O3 cluster in a 15 A box, start = sta
   1.00000000000000     
    15.0000000000000000    0.0000000000000000    0.0000000000000000
     0.0000000000000000   15.0000000000000000    0.0000000000000000
     0.0000000000000000    0.0000000000000000   15.0000000000000000
   Ce   O 
     2     3
Direct
  0.3846907249513362  0.4672971740241678  0.5160947461326061
  0.5822289327248411  0.5583851232674326  0.4661600904481715
  0.4971872321261201  0.4970103708907770  0.5844423972718131
  0.4323223491639347  0.5462468034069881  0.4175197736835362
  0.6326350250337667  0.4509959657439654  0.4156267804638714
 
  0.00000000E+00  0.00000000E+00  0.00000000E+00
  0.00000000E+00  0.00000000E+00  0.00000000E+00
  0.00000000E+00  0.00000000E+00  0.00000000E+00
  0.00000000E+00  0.00000000E+00  0.00000000E+00
  0.00000000E+00  0.00000000E+00  0.00000000E+00
