Ce2O3 cluster on Rh(111) 4x4, start = st
   1.00000000000000     
    10.8137356092000001    0.0000000000000000    0.0000000000000000
     5.4068678046000000    9.3649697473000000    0.0000000000000000
     0.0000000000000000    0.0000000000000000   25.9239999999999995
   Rh   Ce   O 
    64     2     3
Selective dynamics
Direct
  0.0000000000000000  0.0000000000000000  0.0000000000000000   F   F   F
  0.9999999997981206  0.2500000003390284  0.0000000000000000   F   F   F
  0.0000000000561613  0.4999999996102531  0.0000000000000000   F   F   F
  0.9999999997803002  0.7499999999492815  0.0000000000000000   F   F   F
  0.2499999997873061  0.0000000000000000  0.0000000000000000   F   F   F
  0.2499999995114450  0.2500000003390284  0.0000000000000000   F   F   F
  0.2499999997694928  0.4999999996102531  0.0000000000000000   F   F   F
  0.2500000004183818  0.7499999999492815  0.0000000000000000   F   F   F
  0.4999999995746123  0.0000000000000000  0.0000000000000000   F   F   F
  0.5000000002235012  0.2500000003390284  0.0000000000000000   F   F   F
  0.5000000004815490  0.4999999996102531  0.0000000000000000   F   F   F
  0.5000000002056879  0.7499999999492815  0.0000000000000000   F   F   F
  0.7500000002866756  0.0000000000000000  0.0000000000000000   F   F   F
  0.7500000000108145  0.2500000003390284  0.0000000000000000   F   F   F
  0.7500000002688552  0.4999999996102531  0.0000000000000000   F   F   F
  0.7499999999929940  0.7499999999492815  0.0000000000000000   F   F   F
  0.0833333329925168  0.0833333338022797  0.0851467574448392   F   F   F
  0.0833333332505575  0.3333333330734973  0.0851467574448392   F   F   F
  0.0833333329746964  0.5833333334125257  0.0851467574448392   F   F   F
  0.0833333326988352  0.8333333337515612  0.0851467574448392   F   F   F
  0.3333333327798229  0.0833333338022797  0.0851467574448392   F   F   F
  0.3333333330378636  0.3333333330734973  0.0851467574448392   F   F   F
  0.3333333336867526  0.5833333334125257  0.0851467574448392   F   F   F
  0.3333333334108914  0.8333333337515612  0.0851467574448392   F   F   F
  0.5833333334918791  0.0833333338022797  0.0851467574448392   F   F   F
  0.5833333337499198  0.3333333330734973  0.0851467574448392   F   F   F
  0.5833333334740587  0.5833333334125257  0.0851467574448392   F   F   F
  0.5833333331981976  0.8333333337515612  0.0851467574448392   F   F   F
  0.8333333332791852  0.0833333338022797  0.0851467574448392   F   F   F
  0.8333333335372330  0.3333333330734973  0.0851467574448392   F   F   F
  0.8333333332613719  0.5833333334125257  0.0851467574448392   F   F   F
  0.8333333329855108  0.8333333337515612  0.0851467574448392   F   F   F
  0.1668293300447729  0.1663112286019233  0.1683495683604423   T   T   T
  0.1667964179043718  0.4167270612837170  0.1683453147563069   T   T   T
  0.1670396617902913  0.6659972250924852  0.1679407225368247   T   T   T
  0.1670544494559307  0.9168892099434103  0.1679333830477389   T   T   T
  0.4166826954424617  0.1665456389216193  0.1682641399567294   T   T   T
  0.4173053475558366  0.4177321371124570  0.1693088563573395   T   T   T
  0.4176387489499303  0.6661368945474294  0.1702404028352425   T   T   T
  0.4173950402296596  0.9146787532014814  0.1694045492581569   T   T   T
  0.6664597460718926  0.1669936515936287  0.1683628341292498   T   T   T
  0.6647974924977770  0.4177671903629582  0.1692443576218989   T   T   T
  0.6648208518197952  0.6673067278281288  0.1692648984176271   T   T   T
  0.6664751088769389  0.9164156056529489  0.1683810478253190   T   T   T
  0.9162280603064362  0.1671966240987489  0.1684703055905974   T   T   T
  0.9168367369910069  0.4165309681773928  0.1678151579479627   T   T   T
  0.9162027390512156  0.6665125475236202  0.1684856991258170   T   T   T
  0.9168899359326944  0.9165229140909998  0.1684538126963375   T   T   T
  0.2495229692121205  0.2501121680609265  0.2523334708662599   T   T   T
  0.2474011981839545  0.5001588112653155  0.2523399120188618   T   T   T
  0.2438620640600012  0.7530124915737937  0.2517271960217426   T   T   T
  0.2475219293160140  0.0021026485411698  0.2523776226411210   T   T   T
  0.4999370258429184  0.2480927080384779  0.2520962603687607   T   T   T
  0.5002089327526958  0.4967666985978697  0.2557935065733218   T   T   T
  0.5005097562627543  0.7523421949194513  0.2561455916925356   T   T   T
  0.4999700117380825  0.0015526399541477  0.2521211378341837   T   T   T
  0.7525091104631019  0.2471953992832541  0.2525100745483051   T   T   T
  0.7557502502454122  0.4969973674807159  0.2516654883977794   T   T   T
  0.7524429038700369  0.7500959280623447  0.2525157110172543   T   T   T
  0.7504793341661548  0.9996874693231473  0.2522345421180219   T   T   T
  0.0005840833216036  0.2496805571203624  0.2527715493143392   T   T   T
  0.0005185472974534  0.4995450648043711  0.2527508410980755   T   T   T
  0.9996805372605034  0.7499849574225118  0.2527528549060653   T   T   T
  0.9996822450918119  0.0002032803952200  0.2527572948371718   T   T   T
  0.3305898385420682  0.7091314811864282  0.3644162561210770   T   T   T
  0.6705963222521837  0.5359632948791875  0.3643881730891987   T   T   T
  0.5018634256849327  0.7545974481428498  0.3337134357584989   T   T   T
  0.4988511111202538  0.4914123409929891  0.3332605376908371   T   T   T
  0.5008933270467787  0.6214381085982433  0.4217137402210337   T   T   T
 
  0.00000000E+00  0.00000000E+00  0.00000000E+00
  0.00000000E+00  0.00000000E+00  0.00000000E+00
  0.00000000E+00  0.00000000E+00  0.00000000E+00
  0.00000000E+00  0.00000000E+00  0.00000000E+00
  0.00000000E+00  0.00000000E+00  0.00000000E+00
  0.00000000E+00  0.00000000E+00  0.00000000E+00
  0.00000000E+00  0.00000000E+00  0.00000000E+00
  0.00000000E+00  0.00000000E+00  0.00000000E+00
  0.00000000E+00  0.00000000E+00  0.00000000E+00
  0.00000000E+00  0.00000000E+00  0.00000000E+00
  0.00000000E+00  0.00000000E+00  0.00000000E+00
  0.00000000E+00  0.00000000E+00  0.00000000E+00
  0.00000000E+00  0.00000000E+00  0.00000000E+00
  0.00000000E+00  0.00000000E+00  0.00000000E+00
  0.00000000E+00  0.00000000E+00  0.00000000E+00
  0.00000000E+00  0.00000000E+00  0.00000000E+00
  0.00000000E+00  0.00000000E+00  0.00000000E+00
  0.00000000E+00  0.00000000E+00  0.00000000E+00
  0.00000000E+00  0.00000000E+00  0.00000000E+00
  0.00000000E+00  0.00000000E+00  0.00000000E+00
  0.00000000E+00  0.00000000E+00  0.00000000E+00
  0.00000000E+00  0.00000000E+00  0.00000000E+00
  0.00000000E+00  0.00000000E+00  0.00000000E+00
  0.00000000E+00  0.00000000E+00  0.00000000E+00
  0.00000000E+00  0.00000000E+00  0.00000000E+00
  0.00000000E+00  0.00000000E+00  0.00000000E+00
  0.00000000E+00  0.00000000E+00  0.00000000E+00
  0.00000000E+00  0.00000000E+00  0.00000000E+00
  0.00000000E+00  0.00000000E+00  0.00000000E+00
  0.00000000E+00  0.00000000E+00  0.00000000E+00
  0.00000000E+00  0.00000000E+00  0.00000000E+00
  0.00000000E+00  0.00000000E+00  0.00000000E+00
  0.00000000E+00  0.00000000E+00  0.00000000E+00
  0.00000000E+00  0.00000000E+00  0.00000000E+00
  0.00000000E+00  0.00000000E+00  0.00000000E+00
  0.00000000E+00  0.00000000E+00  0.00000000E+00
  0.00000000E+00  0.00000000E+00  0.00000000E+00
  0.00000000E+00  0.00000000E+00  0.00000000E+00
  0.00000000E+00  0.00000000E+00  0.00000000E+00
  0.00000000E+00  0.00000000E+00  0.00000000E+00
  0.00000000E+00  0.00000000E+00  0.00000000E+00
  0.00000000E+00  0.00000000E+00  0.00000000E+00
  0.00000000E+00  0.00000000E+00  0.00000000E+00
  0.00000000E+00  0.00000000E+00  0.00000000E+00
  0.00000000E+00  0.00000000E+00  0.00000000E+00
  0.00000000E+00  0.00000000E+00  0.00000000E+00
  0.00000000E+00  0.00000000E+00  0.00000000E+00
  0.00000000E+00  0.00000000E+00  0.00000000E+00
  0.00000000E+00  0.00000000E+00  0.00000000E+00
  0.00000000E+00  0.00000000E+00  0.00000000E+00
  0.00000000E+00  0.00000000E+00  0.00000000E+00
  0.00000000E+00  0.00000000E+00  0.00000000E+00
  0.00000000E+00  0.00000000E+00  0.00000000E+00
  0.00000000E+00  0.00000000E+00  0.00000000E+00
  0.00000000E+00  0.00000000E+00  0.00000000E+00
  0.00000000E+00  0.00000000E+00  0.00000000E+00
  0.00000000E+00  0.00000000E+00  0.00000000E+00
  0.00000000E+00  0.00000000E+00  0.00000000E+00
  0.00000000E+00  0.00000000E+00  0.00000000E+00
  0.00000000E+00  0.00000000E+00  0.00000000E+00
  0.00000000E+00  0.00000000E+00  0.00000000E+00
  0.00000000E+00  0.00000000E+00  0.00000000E+00
  0.00000000E+00  0.00000000E+00  0.00000000E+00
  0.00000000E+00  0.00000000E+00  0.00000000E+00
  0.00000000E+00  0.00000000E+00  0.00000000E+00
  0.00000000E+00  0.00000000E+00  0.00000000E+00
  0.00000000E+00  0.00000000E+00  0.00000000E+00
  0.00000000E+00  0.00000000E+00  0.00000000E+00
  0.00000000E+00  0.00000000E+00  0.00000000E+00
