SYSTEM = A-type Ce2O3(0001) bilayer (from relaxed 50c) on Rh(111) 3x3, O-down, low Ce over fcc
ISTART = 0
ICHARG = 2
PREC = Accurate
ENCUT = 400
EDIFF = 1E-5
NELM = 200
NELMIN = 4
ISPIN = 2
MAGMOM = 36*0.0 4*1.0 6*0.0
ISYM = 0
ISMEAR = 1
SIGMA = 0.10
ALGO = Normal
AMIN = 0.01
MAXMIX = 40
LREAL = .FALSE.
LASPH = .TRUE.
ADDGRID = .TRUE.
LORBIT = 11
IBRION = 2
POTIM = 0.20
NSW = 200
ISIF = 2
EDIFFG = -0.02
IDIPOL = 3
LDIPOL = .TRUE.
KPAR = 4
NCORE = 3
LWAVE = .TRUE.
LCHARG = .TRUE.
LDAU = .TRUE.
LDAUTYPE = 2
LDAUL = -1 3 -1
LDAUU = 0.0 5.0 0.0
LDAUJ = 0.0 0.0 0.0
LMAXMIX = 6
