A-type Ce2O3(0001) bilayer (from relaxed 50c) on Rh(111) 3x3, O-down, low Ce over fcc
1.0
  8.1103017069  0.0000000000  0.0000000000
  4.0551508534  7.0237273105  0.0000000000
  0.0000000000  0.0000000000  30.0000000000
Rh  Ce  O
36  4  6
Selective dynamics
Cartesian
  0.00000000  0.00000000  2.00000000  F F F
  1.35171695  2.34124244  2.00000000  F F F
  2.70343390  4.68248487  2.00000000  F F F
  2.70343390  0.00000000  2.00000000  F F F
  4.05515085  2.34124244  2.00000000  F F F
  5.40686780  4.68248487  2.00000000  F F F
  5.40686780  0.00000000  2.00000000  F F F
  6.75858476  2.34124244  2.00000000  F F F
  8.11030171  4.68248487  2.00000000  F F F
  1.35171695  0.78041415  4.20734454  F F F
  2.70343390  3.12165658  4.20734454  F F F
  4.05515085  5.46289902  4.20734454  F F F
  4.05515085  0.78041415  4.20734454  F F F
  5.40686780  3.12165658  4.20734454  F F F
  6.75858476  5.46289902  4.20734454  F F F
  6.75858476  0.78041415  4.20734454  F F F
  8.11030171  3.12165658  4.20734454  F F F
  9.46201866  5.46289902  4.20734454  F F F
  2.70343390  1.56082829  6.41468908  T T T
  4.05515085  3.90207073  6.41468908  T T T
  5.40686780  6.24331316  6.41468908  T T T
  5.40686780  1.56082829  6.41468908  T T T
  6.75858476  3.90207073  6.41468908  T T T
  8.11030171  6.24331316  6.41468908  T T T
  8.11030171  1.56082829  6.41468908  T T T
  9.46201866  3.90207073  6.41468908  T T T
  10.81373561  6.24331316  6.41468908  T T T
  4.05515085  2.34124244  8.62203361  T T T
  5.40686780  4.68248487  8.62203361  T T T
  6.75858476  7.02372731  8.62203361  T T T
  6.75858476  2.34124244  8.62203361  T T T
  8.11030171  4.68248487  8.62203361  T T T
  9.46201866  7.02372731  8.62203361  T T T
  9.46201866  2.34124244  8.62203361  T T T
  10.81373561  4.68248487  8.62203361  T T T
  12.16545256  7.02372731  8.62203361  T T T
  0.93552095  2.87994441  11.97976147  T T T
  3.37928885  6.63371964  11.31051536  T T T
  5.40686780  3.12165658  11.30978251  T T T
  7.01883334  6.39160562  11.97969139  T T T
  5.26800584  5.38264400  10.72235525  T T T
  5.00993422  7.57629464  12.63730402  T T T
  7.45561599  8.99171094  11.66695189  T T T
  7.03721568  4.06384798  12.63750390  T T T
  9.48136202  5.47994660  11.66663653  T T T
  11.35087268  8.89482860  10.72203361  T T T
