Rh(111) p(4x4) 4L clean, bottom 2 fixed 
   1.00000000000000     
    10.8137356092000001    0.0000000000000000    0.0000000000000000
     5.4068678046000000    9.3649697473000000    0.0000000000000000
     0.0000000000000000    0.0000000000000000   25.9239999999999995
   Rh
    64
Selective dynamics
Direct
  0.0000000000000000  0.0000000000000000  0.0000000000000000   F   F   F
  0.9999999997241389  0.2500000003390284  0.0000000000000000   F   F   F
  0.9999999999821796  0.4999999996102531  0.0000000000000000   F   F   F
  0.9999999997063185  0.7499999999492815  0.0000000000000000   F   F   F
  0.2499999997873061  0.0000000000000000  0.0000000000000000   F   F   F
  0.2499999995114450  0.2500000003390284  0.0000000000000000   F   F   F
  0.2499999997694928  0.4999999996102531  0.0000000000000000   F   F   F
  0.2500000004183818  0.7499999999492815  0.0000000000000000   F   F   F
  0.4999999995746123  0.0000000000000000  0.0000000000000000   F   F   F
  0.5000000002235012  0.2500000003390284  0.0000000000000000   F   F   F
  0.5000000004815490  0.4999999996102531  0.0000000000000000   F   F   F
  0.5000000002056879  0.7499999999492815  0.0000000000000000   F   F   F
  0.7500000002866756  0.0000000000000000  0.0000000000000000   F   F   F
  0.7500000000108145  0.2500000003390284  0.0000000000000000   F   F   F
  0.7500000002688552  0.4999999996102531  0.0000000000000000   F   F   F
  0.7499999999929940  0.7499999999492815  0.0000000000000000   F   F   F
  0.0833333329925168  0.0833333338022797  0.0851467574448392   F   F   F
  0.0833333332505575  0.3333333330734973  0.0851467574448392   F   F   F
  0.0833333329746964  0.5833333334125257  0.0851467574448392   F   F   F
  0.0833333326988352  0.8333333337515612  0.0851467574448392   F   F   F
  0.3333333327798229  0.0833333338022797  0.0851467574448392   F   F   F
  0.3333333330378636  0.3333333330734973  0.0851467574448392   F   F   F
  0.3333333336867526  0.5833333334125257  0.0851467574448392   F   F   F
  0.3333333334108914  0.8333333337515612  0.0851467574448392   F   F   F
  0.5833333334918791  0.0833333338022797  0.0851467574448392   F   F   F
  0.5833333337499198  0.3333333330734973  0.0851467574448392   F   F   F
  0.5833333334740587  0.5833333334125257  0.0851467574448392   F   F   F
  0.5833333331981976  0.8333333337515612  0.0851467574448392   F   F   F
  0.8333333332791852  0.0833333338022797  0.0851467574448392   F   F   F
  0.8333333335372330  0.3333333330734973  0.0851467574448392   F   F   F
  0.8333333332613719  0.5833333334125257  0.0851467574448392   F   F   F
  0.8333333329855108  0.8333333337515612  0.0851467574448392   F   F   F
  0.1666667740999652  0.1666666154460988  0.1684113933675938   T   T   T
  0.1666668493977385  0.4166665587485495  0.1684114714163136   T   T   T
  0.1666669154538912  0.6666666012292549  0.1684114205026599   T   T   T
  0.1666667977915361  0.9166665439084671  0.1684114135116168   T   T   T
  0.4166666688994558  0.1666667982795878  0.1684113832621103   T   T   T
  0.4166666794402916  0.4166666329719251  0.1684114418689086   T   T   T
  0.4166665339328705  0.6666665730389990  0.1684114207266212   T   T   T
  0.4166665342389998  0.9166667768879073  0.1684113745117383   T   T   T
  0.6666664274938460  0.1666668263479509  0.1684113470116858   T   T   T
  0.6666665090953262  0.4166666710082825  0.1684113119729297   T   T   T
  0.6666665803564136  0.6666666099601076  0.1684112450930934   T   T   T
  0.6666665255672487  0.9166668651915556  0.1684112622698655   T   T   T
  0.9166666531241066  0.1666667002165948  0.1684112812308720   T   T   T
  0.9166667236799775  0.4166666050704795  0.1684113092231923   T   T   T
  0.9166667706411199  0.6666665908677805  0.1684112606674418   T   T   T
  0.9166667048823172  0.9166666672724177  0.1684112733151738   T   T   T
  0.2500000321705119  0.2499999080713461  0.2523757960708524   T   T   T
  0.2500000544293214  0.5000000379171463  0.2523755783349226   T   T   T
  0.2500000739115279  0.7500000049039290  0.2523759043971829   T   T   T
  0.2500000996653983 -0.0000000688126598  0.2523757635866061   T   T   T
  0.4999998341719177  0.2500000677726068  0.2523757974387038   T   T   T
  0.4999998084941550  0.5000001078420279  0.2523758518820722   T   T   T
  0.4999997966389795  0.7500001414108748  0.2523754475481083   T   T   T
  0.4999997769287946  0.0000000881877288  0.2523757369015270   T   T   T
  0.7499999411617311  0.2500000408564425  0.2523755607295066   T   T   T
  0.7499999498217873  0.5000000222015963  0.2523754204409526   T   T   T
  0.7499999483645994  0.7500000518129640  0.2523753693492555   T   T   T
  0.7499999548153694  0.0000000018382082  0.2523754186550995   T   T   T
  0.0000002201189154  0.2499999673462902  0.2523754572669143   T   T   T
  0.0000001810509829  0.4999998856188351  0.2523753968335457   T   T   T
  0.0000001496271261  0.7499998804821921  0.2523753875797502   T   T   T
  0.0000002266983437 -0.0000001106638355  0.2523754383400220   T   T   T
 
  0.00000000E+00  0.00000000E+00  0.00000000E+00
  0.00000000E+00  0.00000000E+00  0.00000000E+00
  0.00000000E+00  0.00000000E+00  0.00000000E+00
  0.00000000E+00  0.00000000E+00  0.00000000E+00
  0.00000000E+00  0.00000000E+00  0.00000000E+00
  0.00000000E+00  0.00000000E+00  0.00000000E+00
  0.00000000E+00  0.00000000E+00  0.00000000E+00
  0.00000000E+00  0.00000000E+00  0.00000000E+00
  0.00000000E+00  0.00000000E+00  0.00000000E+00
  0.00000000E+00  0.00000000E+00  0.00000000E+00
  0.00000000E+00  0.00000000E+00  0.00000000E+00
  0.00000000E+00  0.00000000E+00  0.00000000E+00
  0.00000000E+00  0.00000000E+00  0.00000000E+00
  0.00000000E+00  0.00000000E+00  0.00000000E+00
  0.00000000E+00  0.00000000E+00  0.00000000E+00
  0.00000000E+00  0.00000000E+00  0.00000000E+00
  0.00000000E+00  0.00000000E+00  0.00000000E+00
  0.00000000E+00  0.00000000E+00  0.00000000E+00
  0.00000000E+00  0.00000000E+00  0.00000000E+00
  0.00000000E+00  0.00000000E+00  0.00000000E+00
  0.00000000E+00  0.00000000E+00  0.00000000E+00
  0.00000000E+00  0.00000000E+00  0.00000000E+00
  0.00000000E+00  0.00000000E+00  0.00000000E+00
  0.00000000E+00  0.00000000E+00  0.00000000E+00
  0.00000000E+00  0.00000000E+00  0.00000000E+00
  0.00000000E+00  0.00000000E+00  0.00000000E+00
  0.00000000E+00  0.00000000E+00  0.00000000E+00
  0.00000000E+00  0.00000000E+00  0.00000000E+00
  0.00000000E+00  0.00000000E+00  0.00000000E+00
  0.00000000E+00  0.00000000E+00  0.00000000E+00
  0.00000000E+00  0.00000000E+00  0.00000000E+00
  0.00000000E+00  0.00000000E+00  0.00000000E+00
  0.00000000E+00  0.00000000E+00  0.00000000E+00
  0.00000000E+00  0.00000000E+00  0.00000000E+00
  0.00000000E+00  0.00000000E+00  0.00000000E+00
  0.00000000E+00  0.00000000E+00  0.00000000E+00
  0.00000000E+00  0.00000000E+00  0.00000000E+00
  0.00000000E+00  0.00000000E+00  0.00000000E+00
  0.00000000E+00  0.00000000E+00  0.00000000E+00
  0.00000000E+00  0.00000000E+00  0.00000000E+00
  0.00000000E+00  0.00000000E+00  0.00000000E+00
  0.00000000E+00  0.00000000E+00  0.00000000E+00
  0.00000000E+00  0.00000000E+00  0.00000000E+00
  0.00000000E+00  0.00000000E+00  0.00000000E+00
  0.00000000E+00  0.00000000E+00  0.00000000E+00
  0.00000000E+00  0.00000000E+00  0.00000000E+00
  0.00000000E+00  0.00000000E+00  0.00000000E+00
  0.00000000E+00  0.00000000E+00  0.00000000E+00
  0.00000000E+00  0.00000000E+00  0.00000000E+00
  0.00000000E+00  0.00000000E+00  0.00000000E+00
  0.00000000E+00  0.00000000E+00  0.00000000E+00
  0.00000000E+00  0.00000000E+00  0.00000000E+00
  0.00000000E+00  0.00000000E+00  0.00000000E+00
  0.00000000E+00  0.00000000E+00  0.00000000E+00
  0.00000000E+00  0.00000000E+00  0.00000000E+00
  0.00000000E+00  0.00000000E+00  0.00000000E+00
  0.00000000E+00  0.00000000E+00  0.00000000E+00
  0.00000000E+00  0.00000000E+00  0.00000000E+00
  0.00000000E+00  0.00000000E+00  0.00000000E+00
  0.00000000E+00  0.00000000E+00  0.00000000E+00
  0.00000000E+00  0.00000000E+00  0.00000000E+00
  0.00000000E+00  0.00000000E+00  0.00000000E+00
  0.00000000E+00  0.00000000E+00  0.00000000E+00
  0.00000000E+00  0.00000000E+00  0.00000000E+00
