Ce2O3 cluster on Rh(111) 4x4, start = st
   1.00000000000000     
    10.8137356092000001    0.0000000000000000    0.0000000000000000
     5.4068678046000000    9.3649697473000000    0.0000000000000000
     0.0000000000000000    0.0000000000000000   25.9239999999999995
   Rh   Ce   O 
    64     2     3
Selective dynamics
Direct
  0.0000000000000000  0.0000000000000000  0.0000000000000000   F   F   F
  0.9999999997981206  0.2500000003390284  0.0000000000000000   F   F   F
  0.0000000000561613  0.4999999996102531  0.0000000000000000   F   F   F
  0.9999999997803002  0.7499999999492815  0.0000000000000000   F   F   F
  0.2499999997873061  0.0000000000000000  0.0000000000000000   F   F   F
  0.2499999995114450  0.2500000003390284  0.0000000000000000   F   F   F
  0.2499999997694928  0.4999999996102531  0.0000000000000000   F   F   F
  0.2500000004183818  0.7499999999492815  0.0000000000000000   F   F   F
  0.4999999995746123  0.0000000000000000  0.0000000000000000   F   F   F
  0.5000000002235012  0.2500000003390284  0.0000000000000000   F   F   F
  0.5000000004815490  0.4999999996102531  0.0000000000000000   F   F   F
  0.5000000002056879  0.7499999999492815  0.0000000000000000   F   F   F
  0.7500000002866756  0.0000000000000000  0.0000000000000000   F   F   F
  0.7500000000108145  0.2500000003390284  0.0000000000000000   F   F   F
  0.7500000002688552  0.4999999996102531  0.0000000000000000   F   F   F
  0.7499999999929940  0.7499999999492815  0.0000000000000000   F   F   F
  0.0833333329925168  0.0833333338022797  0.0851467574448392   F   F   F
  0.0833333332505575  0.3333333330734973  0.0851467574448392   F   F   F
  0.0833333329746964  0.5833333334125257  0.0851467574448392   F   F   F
  0.0833333326988352  0.8333333337515612  0.0851467574448392   F   F   F
  0.3333333327798229  0.0833333338022797  0.0851467574448392   F   F   F
  0.3333333330378636  0.3333333330734973  0.0851467574448392   F   F   F
  0.3333333336867526  0.5833333334125257  0.0851467574448392   F   F   F
  0.3333333334108914  0.8333333337515612  0.0851467574448392   F   F   F
  0.5833333334918791  0.0833333338022797  0.0851467574448392   F   F   F
  0.5833333337499198  0.3333333330734973  0.0851467574448392   F   F   F
  0.5833333334740587  0.5833333334125257  0.0851467574448392   F   F   F
  0.5833333331981976  0.8333333337515612  0.0851467574448392   F   F   F
  0.8333333332791852  0.0833333338022797  0.0851467574448392   F   F   F
  0.8333333335372330  0.3333333330734973  0.0851467574448392   F   F   F
  0.8333333332613719  0.5833333334125257  0.0851467574448392   F   F   F
  0.8333333329855108  0.8333333337515612  0.0851467574448392   F   F   F
  0.1683660337641713  0.1676225144265322  0.1698099554683343   T   T   T
  0.1685846360788100  0.4148542452555303  0.1709976936430205   T   T   T
  0.1665933266580430  0.6669860350472397  0.1674835633054774   T   T   T
  0.1678797195718452  0.9153105759754330  0.1701165353928971   T   T   T
  0.4145311853334914  0.1678047621724768  0.1695346436238862   T   T   T
  0.4171048086270327  0.4159538989957285  0.1680303202823221   T   T   T
  0.4169172104090276  0.6665427380009317  0.1683371127686165   T   T   T
  0.4170003044797995  0.9167659264661259  0.1689010456824218   T   T   T
  0.6666931741392349  0.1663849214385068  0.1670325950607786   T   T   T
  0.6640144308437995  0.4183964321890996  0.1701027610579711   T   T   T
  0.6662497558770119  0.6669891960117961  0.1680917790816371   T   T   T
  0.6662363044378098  0.9172654896538914  0.1688380100720663   T   T   T
  0.9175215673675291  0.1670087755417023  0.1682479626199780   T   T   T
  0.9166532845943930  0.4159884170656171  0.1685589072571155   T   T   T
  0.9177591688288674  0.6657511822178810  0.1685240795357777   T   T   T
  0.9167406688317272  0.9171745791306654  0.1684847445572761   T   T   T
  0.2506141973605060  0.2506770871288062  0.2608540036542192   T   T   T
  0.2465450121171670  0.5046859375550885  0.2522928401901848   T   T   T
  0.2488400284568029  0.7527196102108911  0.2546047205432992   T   T   T
  0.2510334072520070  0.9983159072624497  0.2527076674813772   T   T   T
  0.5064881982958263  0.2438411971636799  0.2517087870269701   T   T   T
  0.5019128910221360  0.4997987237029833  0.2567265062417937   T   T   T
  0.5037014614433749  0.7512442029802898  0.2523839988355035   T   T   T
  0.5020544438598201  0.9984026677244434  0.2528026543274919   T   T   T
  0.7515989572082833  0.2462184988591565  0.2525120332445425   T   T   T
  0.7500311248273620  0.5013370134086803  0.2541340658405604   T   T   T
  0.7509841368430775  0.7485763380832742  0.2524088320202204   T   T   T
  0.7512061915414014  0.9999407925017212  0.2526144686468557   T   T   T
  0.0005982238637113  0.2501763902193804  0.2528976357025345   T   T   T
  0.9976057821216517  0.5012852202141845  0.2528527617125568   T   T   T
  0.9948973162562188  0.7533734140908884  0.2520416993203342   T   T   T
  0.0004700787206825  0.9997519944794248  0.2532823489910379   T   T   T
  0.3979668906716868  0.3705038318887318  0.3553248285296634   T   T   T
  0.7829352204465569  0.3172061587822100  0.3510193983771684   T   T   T
  0.6110376244811194  0.3228132882426552  0.3890216683742387   T   T   T
  0.3278742599842535  0.5842036722530637  0.3083368560858523   T   T   T
  0.2874987849043551  0.2506729799973539  0.3336523355702762   T   T   T
 
  0.00000000E+00  0.00000000E+00  0.00000000E+00
  0.00000000E+00  0.00000000E+00  0.00000000E+00
  0.00000000E+00  0.00000000E+00  0.00000000E+00
  0.00000000E+00  0.00000000E+00  0.00000000E+00
  0.00000000E+00  0.00000000E+00  0.00000000E+00
  0.00000000E+00  0.00000000E+00  0.00000000E+00
  0.00000000E+00  0.00000000E+00  0.00000000E+00
  0.00000000E+00  0.00000000E+00  0.00000000E+00
  0.00000000E+00  0.00000000E+00  0.00000000E+00
  0.00000000E+00  0.00000000E+00  0.00000000E+00
  0.00000000E+00  0.00000000E+00  0.00000000E+00
  0.00000000E+00  0.00000000E+00  0.00000000E+00
  0.00000000E+00  0.00000000E+00  0.00000000E+00
  0.00000000E+00  0.00000000E+00  0.00000000E+00
  0.00000000E+00  0.00000000E+00  0.00000000E+00
  0.00000000E+00  0.00000000E+00  0.00000000E+00
  0.00000000E+00  0.00000000E+00  0.00000000E+00
  0.00000000E+00  0.00000000E+00  0.00000000E+00
  0.00000000E+00  0.00000000E+00  0.00000000E+00
  0.00000000E+00  0.00000000E+00  0.00000000E+00
  0.00000000E+00  0.00000000E+00  0.00000000E+00
  0.00000000E+00  0.00000000E+00  0.00000000E+00
  0.00000000E+00  0.00000000E+00  0.00000000E+00
  0.00000000E+00  0.00000000E+00  0.00000000E+00
  0.00000000E+00  0.00000000E+00  0.00000000E+00
  0.00000000E+00  0.00000000E+00  0.00000000E+00
  0.00000000E+00  0.00000000E+00  0.00000000E+00
  0.00000000E+00  0.00000000E+00  0.00000000E+00
  0.00000000E+00  0.00000000E+00  0.00000000E+00
  0.00000000E+00  0.00000000E+00  0.00000000E+00
  0.00000000E+00  0.00000000E+00  0.00000000E+00
  0.00000000E+00  0.00000000E+00  0.00000000E+00
  0.00000000E+00  0.00000000E+00  0.00000000E+00
  0.00000000E+00  0.00000000E+00  0.00000000E+00
  0.00000000E+00  0.00000000E+00  0.00000000E+00
  0.00000000E+00  0.00000000E+00  0.00000000E+00
  0.00000000E+00  0.00000000E+00  0.00000000E+00
  0.00000000E+00  0.00000000E+00  0.00000000E+00
  0.00000000E+00  0.00000000E+00  0.00000000E+00
  0.00000000E+00  0.00000000E+00  0.00000000E+00
  0.00000000E+00  0.00000000E+00  0.00000000E+00
  0.00000000E+00  0.00000000E+00  0.00000000E+00
  0.00000000E+00  0.00000000E+00  0.00000000E+00
  0.00000000E+00  0.00000000E+00  0.00000000E+00
  0.00000000E+00  0.00000000E+00  0.00000000E+00
  0.00000000E+00  0.00000000E+00  0.00000000E+00
  0.00000000E+00  0.00000000E+00  0.00000000E+00
  0.00000000E+00  0.00000000E+00  0.00000000E+00
  0.00000000E+00  0.00000000E+00  0.00000000E+00
  0.00000000E+00  0.00000000E+00  0.00000000E+00
  0.00000000E+00  0.00000000E+00  0.00000000E+00
  0.00000000E+00  0.00000000E+00  0.00000000E+00
  0.00000000E+00  0.00000000E+00  0.00000000E+00
  0.00000000E+00  0.00000000E+00  0.00000000E+00
  0.00000000E+00  0.00000000E+00  0.00000000E+00
  0.00000000E+00  0.00000000E+00  0.00000000E+00
  0.00000000E+00  0.00000000E+00  0.00000000E+00
  0.00000000E+00  0.00000000E+00  0.00000000E+00
  0.00000000E+00  0.00000000E+00  0.00000000E+00
  0.00000000E+00  0.00000000E+00  0.00000000E+00
  0.00000000E+00  0.00000000E+00  0.00000000E+00
  0.00000000E+00  0.00000000E+00  0.00000000E+00
  0.00000000E+00  0.00000000E+00  0.00000000E+00
  0.00000000E+00  0.00000000E+00  0.00000000E+00
  0.00000000E+00  0.00000000E+00  0.00000000E+00
  0.00000000E+00  0.00000000E+00  0.00000000E+00
  0.00000000E+00  0.00000000E+00  0.00000000E+00
  0.00000000E+00  0.00000000E+00  0.00000000E+00
  0.00000000E+00  0.00000000E+00  0.00000000E+00
