one CeO2 unit on Rh(111) 4x4, start: Ce on Rh, O bent up
1.0
  10.8137356092  0.0000000000  0.0000000000
  5.4068678046  9.3649697473  0.0000000000
  0.0000000000  0.0000000000  30.0000000000
Rh  Ce  O
64  1  2
Selective dynamics
Cartesian
  0.00000000  0.00000000  0.00000000  F F F
  1.35171695  2.34124244  0.00000000  F F F
  2.70343390  4.68248487  0.00000000  F F F
  4.05515085  7.02372731  0.00000000  F F F
  2.70343390  0.00000000  0.00000000  F F F
  4.05515085  2.34124244  0.00000000  F F F
  5.40686780  4.68248487  0.00000000  F F F
  6.75858476  7.02372731  0.00000000  F F F
  5.40686780  0.00000000  0.00000000  F F F
  6.75858476  2.34124244  0.00000000  F F F
  8.11030171  4.68248487  0.00000000  F F F
  9.46201866  7.02372731  0.00000000  F F F
  8.11030171  0.00000000  0.00000000  F F F
  9.46201866  2.34124244  0.00000000  F F F
  10.81373561  4.68248487  0.00000000  F F F
  12.16545256  7.02372731  0.00000000  F F F
  1.35171695  0.78041415  2.20734454  F F F
  2.70343390  3.12165658  2.20734454  F F F
  4.05515085  5.46289902  2.20734454  F F F
  5.40686780  7.80414146  2.20734454  F F F
  4.05515085  0.78041415  2.20734454  F F F
  5.40686780  3.12165658  2.20734454  F F F
  6.75858476  5.46289902  2.20734454  F F F
  8.11030171  7.80414146  2.20734454  F F F
  6.75858476  0.78041415  2.20734454  F F F
  8.11030171  3.12165658  2.20734454  F F F
  9.46201866  5.46289902  2.20734454  F F F
  10.81373561  7.80414146  2.20734454  F F F
  9.46201866  0.78041415  2.20734454  F F F
  10.81373561  3.12165658  2.20734454  F F F
  12.16545256  5.46289902  2.20734454  F F F
  13.51716951  7.80414146  2.20734454  F F F
  2.70343390  1.56082829  4.41468908  T T T
  4.05515085  3.90207073  4.41468908  T T T
  5.40686780  6.24331316  4.41468908  T T T
  6.75858476  8.58455560  4.41468908  T T T
  5.40686780  1.56082829  4.41468908  T T T
  6.75858476  3.90207073  4.41468908  T T T
  8.11030171  6.24331316  4.41468908  T T T
  9.46201866  8.58455560  4.41468908  T T T
  8.11030171  1.56082829  4.41468908  T T T
  9.46201866  3.90207073  4.41468908  T T T
  10.81373561  6.24331316  4.41468908  T T T
  12.16545256  8.58455560  4.41468908  T T T
  10.81373561  1.56082829  4.41468908  T T T
  12.16545256  3.90207073  4.41468908  T T T
  13.51716951  6.24331316  4.41468908  T T T
  14.86888646  8.58455560  4.41468908  T T T
  4.05515085  2.34124244  6.62203361  T T T
  5.40686780  4.68248487  6.62203361  T T T
  6.75858476  7.02372731  6.62203361  T T T
  8.11030171  9.36496975  6.62203361  T T T
  6.75858476  2.34124244  6.62203361  T T T
  8.11030171  4.68248487  6.62203361  T T T
  9.46201866  7.02372731  6.62203361  T T T
  10.81373561  9.36496975  6.62203361  T T T
  9.46201866  2.34124244  6.62203361  T T T
  10.81373561  4.68248487  6.62203361  T T T
  12.16545256  7.02372731  6.62203361  T T T
  13.51716951  9.36496975  6.62203361  T T T
  12.16545256  2.34124244  6.62203361  T T T
  13.51716951  4.68248487  6.62203361  T T T
  14.86888646  7.02372731  6.62203361  T T T
  16.22060341  9.36496975  6.62203361  T T T
  9.46201866  5.46289902  9.02203361  T T T
  11.21201866  5.46289902  9.72203361  T T T
  7.71201866  5.46289902  9.72203361  T T T
