O2 in a 15 A box, d = 1.23 A            
   1.00000000000000     
    15.0000000000000000    0.0000000000000000    0.0000000000000000
     0.0000000000000000   15.0000000000000000    0.0000000000000000
     0.0000000000000000    0.0000000000000000   15.0000000000000000
   O 
     2
Direct
  0.4999999992331587  0.4999999991516602  0.4588788495987859
  0.5000000007668413  0.5000000008483398  0.5411211504012140
 
  0.00000000E+00  0.00000000E+00  0.00000000E+00
  0.00000000E+00  0.00000000E+00  0.00000000E+00
