SYSTEM = Rh(111) p(3x3) 4L clean, bottom 2 fixed (reference for the Ce2O3 layer) | relax
PREC = Accurate
ENCUT = 450
ISPIN = 2
MAGMOM = 36*0.0
ISYM = 0
LREAL = .FALSE.
LASPH = .TRUE.
ADDGRID = .TRUE.
LORBIT = 11
NELMIN = 4
AMIN = 0.01
MAXMIX = 40
AMIX_MAG = 0.4
BMIX_MAG = 1.0
ISMEAR = 1
SIGMA = 0.10
IDIPOL = 3
LDIPOL = .FALSE.
KPAR = 4
NCORE = 3
ISTART = 0
ICHARG = 2
ALGO = Normal
NELM = 200
EDIFF = 1E-5
IBRION = 3
IOPT = 7
POTIM = 0
MAXMOVE = 0.2
NSW = 400
ISIF = 2
EDIFFG = -0.02
LWAVE = .TRUE.
LCHARG = .TRUE.
