CeO2 fluorite conventional cell | Stage-2 reference
1.0
  5.5030000000  0.0000000000  0.0000000000
  0.0000000000  5.5030000000  0.0000000000
  0.0000000000  0.0000000000  5.5030000000
Ce  O
4  8
Cartesian
  0.00000000  0.00000000  0.00000000  
  0.00000000  2.75150000  2.75150000  
  2.75150000  0.00000000  2.75150000  
  2.75150000  2.75150000  0.00000000  
  1.37575000  1.37575000  1.37575000  
  1.37575000  4.12725000  4.12725000  
  4.12725000  1.37575000  4.12725000  
  4.12725000  4.12725000  1.37575000  
  4.12725000  4.12725000  4.12725000  
  4.12725000  6.87875000  6.87875000  
  6.87875000  4.12725000  6.87875000  
  6.87875000  6.87875000  4.12725000  
