Ce2O4 cluster in a 15 A box, start = rou
   1.00000000000000     
    15.0000000000000000    0.0000000000000000    0.0000000000000000
     0.0000000000000000   15.0000000000000000    0.0000000000000000
     0.0000000000000000    0.0000000000000000   15.0000000000000000
   Ce   O 
     2     4
Direct
  0.3975388333333356  0.5013847886666696  0.4823798933333308
  0.6196323193333342  0.5082267586666660  0.5178187980000004
  0.4965645373333345  0.4713259893333301  0.5813442299999991
  0.5206317940000034  0.5380045873333330  0.4186557700000009
  0.3238867846666693  0.5979450193333307  0.5120817973333303
  0.6934465486666639  0.4113883139999999  0.4893570699999970
 
  0.00000000E+00  0.00000000E+00  0.00000000E+00
  0.00000000E+00  0.00000000E+00  0.00000000E+00
  0.00000000E+00  0.00000000E+00  0.00000000E+00
  0.00000000E+00  0.00000000E+00  0.00000000E+00
  0.00000000E+00  0.00000000E+00  0.00000000E+00
  0.00000000E+00  0.00000000E+00  0.00000000E+00
