SYSTEM = free-standing 2x2 film in the 3x3 Rh(111) cell (strained reference), removed ('Ot0', 'Ob3')
ISTART = 0
ICHARG = 2
PREC = Accurate
ENCUT = 400
EDIFF = 1E-5
NELM = 250
NELMIN = 4
ISPIN = 2
MAGMOM = 4*1.0 6*0.0
ISYM = 0
ISMEAR = 1
SIGMA = 0.10
ALGO = Normal
AMIX = 0.2
BMIX = 0.0001
AMIX_MAG = 0.8
BMIX_MAG = 0.0001
AMIN = 0.01
LREAL = .FALSE.
LASPH = .TRUE.
ADDGRID = .TRUE.
LORBIT = 11
IBRION = 2
POTIM = 0.20
NSW = 200
ISIF = 2
EDIFFG = -0.02
IDIPOL = 3
LDIPOL = .TRUE.
KPAR = 4
NCORE = 3
LWAVE = .TRUE.
LCHARG = .TRUE.
LDAU = .TRUE.
LDAUTYPE = 2
LDAUL = 3 -1
LDAUU = 5.0 0.0
LDAUJ = 0.0 0.0
LMAXMIX = 6
