SYSTEM = one Ce2O3 cluster on Rh(111) 4x4, start = round-1 10b geometry | stageA_spinSP
PREC = Accurate
ENCUT = 450
ISPIN = 2
MAGMOM = 64*0.0 2*1.0 3*0.0
ISYM = 0
LREAL = .FALSE.
LASPH = .TRUE.
ADDGRID = .TRUE.
LORBIT = 11
NELMIN = 4
AMIN = 0.01
MAXMIX = 40
AMIX_MAG = 0.4
BMIX_MAG = 1.0
ISMEAR = 1
SIGMA = 0.10
IDIPOL = 3
LDIPOL = .FALSE.
KPAR = 4
NCORE = 3
ISTART = 0
ICHARG = 2
ALGO = All
NELM = 500
EDIFF = 1E-5
IBRION = -1
NSW = 0
LWAVE = .TRUE.
LCHARG = .TRUE.
LDAU = .TRUE.
LDAUTYPE = 2
LDAUL = -1 3 -1
LDAUU = 0.0 5.0 0.0
LDAUJ = 0.0 0.0 0.0
LMAXMIX = 6
