Ce2O3 cluster on Rh(111) 4x4, start = stage-3 S1_12a relaxed
1.0
  10.8137356092  0.0000000000  0.0000000000
  5.4068678046  9.3649697473  0.0000000000
  0.0000000000  0.0000000000  25.9240000000
Rh  Ce  O
64  2  3
Selective dynamics
Cartesian
  0.00000000  0.00000000  0.00000000  F F F
  12.16545256  2.34124244  0.00000000  F F F
  13.51716951  4.68248487  0.00000000  F F F
  14.86888646  7.02372731  0.00000000  F F F
  2.70343390  0.00000000  0.00000000  F F F
  4.05515085  2.34124244  0.00000000  F F F
  5.40686780  4.68248487  0.00000000  F F F
  6.75858476  7.02372731  0.00000000  F F F
  5.40686780  0.00000000  0.00000000  F F F
  6.75858476  2.34124244  0.00000000  F F F
  8.11030171  4.68248487  0.00000000  F F F
  9.46201866  7.02372731  0.00000000  F F F
  8.11030171  0.00000000  0.00000000  F F F
  9.46201866  2.34124244  0.00000000  F F F
  10.81373561  4.68248487  0.00000000  F F F
  12.16545256  7.02372731  0.00000000  F F F
  1.35171695  0.78041415  2.20734454  F F F
  2.70343390  3.12165658  2.20734454  F F F
  4.05515085  5.46289902  2.20734454  F F F
  5.40686780  7.80414146  2.20734454  F F F
  4.05515085  0.78041415  2.20734454  F F F
  5.40686780  3.12165658  2.20734454  F F F
  6.75858476  5.46289902  2.20734454  F F F
  8.11030171  7.80414146  2.20734454  F F F
  6.75858476  0.78041415  2.20734454  F F F
  8.11030171  3.12165658  2.20734454  F F F
  9.46201866  5.46289902  2.20734454  F F F
  10.81373561  7.80414146  2.20734454  F F F
  9.46201866  0.78041415  2.20734454  F F F
  10.81373561  3.12165658  2.20734454  F F F
  12.16545256  5.46289902  2.20734454  F F F
  13.51716951  7.80414146  2.20734454  F F F
  2.72673396  1.56968679  4.40079424  T T T
  4.06597952  3.88485938  4.43275845  T T T
  5.40786366  6.24652941  4.34177524  T T T
  6.76418014  8.57230781  4.41034321  T T T
  5.38979841  1.57142751  4.39517802  T T T
  6.75956760  3.89570703  4.35617111  T T T
  8.11238966  6.24245428  4.36403793  T T T
  9.46592739  8.58571028  4.37903244  T T T
  8.10930562  1.55828448  4.33008706  T T T
  9.44282723  3.91890287  4.40996507  T T T
  10.81098531  6.24659750  4.35758949  T T T
  12.16400891  8.59048994  4.37724487  T T T
  10.82414656  1.56491506  4.36299244  T T T
  12.16154804  3.89545755  4.36879154  T T T
  13.52402396  6.23485916  4.36896193  T T T
  14.87273289  8.58964307  4.36824611  T T T
  4.06564963  2.34858141  6.76513560  T T T
  5.39362156  4.72681479  6.54062296  T T T
  6.76109916  7.04985015  6.60044124  T T T
  8.11189872  9.34966279  6.55099642  T T T
  6.79580751  2.28434256  6.52451635  T T T
  8.12888488  4.68145126  6.65789236  T T T
  9.50893560  7.03589825  6.54318413  T T T
  10.82710023  9.35068715  6.55387459  T T T
  9.45847334  2.30726571  6.54904475  T T T
  10.82098553  4.69505546  6.58644572  T T T
  12.16820635  7.01082235  6.54369922  T T T
  13.53004070  9.36455581  6.54898981  T T T
  1.36038876  2.34402489  6.55534700  T T T
  13.49786470  4.69460340  6.55502043  T T T
  14.83175088  7.05553122  6.53406402  T T T
  5.41080637  9.36335844  6.56749381  T T T
  6.30854737  3.47001759  9.20960105  T T T
  10.17980376  2.98172816  9.10081254  T T T
  8.34814049  3.02287116  10.08813324  T T T
  6.70367120  5.47393446  7.99311312  T T T
  4.46302600  2.34665879  8.65165581  T T T
