free-standing 2x2 film in the 3x3 Rh(111
   1.00000000000000     
     8.1103017068999996    0.0000000000000000    0.0000000000000000
     4.0551508533999998    7.0237273105000000    0.0000000000000000
     0.0000000000000000    0.0000000000000000   30.0000000000000000
   Ce   O 
     4     6
Selective dynamics
Direct
  0.0923844049560512  0.0918731138324716  0.3891247162206024   T   T   T
  0.1264799000445544  0.6263151652266381  0.3668165124050349   T   T   T
  0.6264945302830243  0.1262867753001437  0.3667920843260340   T   T   T
  0.5924710829586496  0.5918442910352029  0.3891223802688789   T   T   T
  0.4484193227314007  0.4481938369418875  0.3472111756207343   T   T   T
  0.2604390895384399  0.7605138547653085  0.4110428011030652   T   T   T
  0.4612319629377132  0.9620331108920062  0.3786977302453526   T   T   T
  0.7604443462213508  0.2604308493722987  0.4110494639508805   T   T   T
  0.9609993286194363  0.4620472503733073  0.3786872181681565   T   T   T
  0.9484138068527500  0.9482395305328809  0.3472004543579302   T   T   T
 
  0.00000000E+00  0.00000000E+00  0.00000000E+00
  0.00000000E+00  0.00000000E+00  0.00000000E+00
  0.00000000E+00  0.00000000E+00  0.00000000E+00
  0.00000000E+00  0.00000000E+00  0.00000000E+00
  0.00000000E+00  0.00000000E+00  0.00000000E+00
  0.00000000E+00  0.00000000E+00  0.00000000E+00
  0.00000000E+00  0.00000000E+00  0.00000000E+00
  0.00000000E+00  0.00000000E+00  0.00000000E+00
  0.00000000E+00  0.00000000E+00  0.00000000E+00
  0.00000000E+00  0.00000000E+00  0.00000000E+00
