free-standing 2x2 film in the 3x3 Rh(111) cell (strained reference), removed ('Ot0', 'Ot3')
1.0
  8.1103017069  0.0000000000  0.0000000000
  4.0551508534  7.0237273105  0.0000000000
  0.0000000000  0.0000000000  30.0000000000
Ce  O
4  6
Selective dynamics
Cartesian
  1.35171695  0.78041415  11.51603361  T T T
  3.37929238  4.29227780  11.51603361  T T T
  5.40686780  0.78041415  11.51603361  T T T
  7.43444323  4.29227780  11.51603361  T T T
  5.40686780  3.12165658  10.72203361  T T T
  5.40686780  5.46289902  12.31003361  T T T
  7.43444323  6.63352024  10.72203361  T T T
  7.43444323  1.95103536  12.31003361  T T T
  9.46201866  3.12165658  10.72203361  T T T
  11.48959408  6.63352024  10.72203361  T T T
